% Generated Graph Coloring Instance
nc = 11;
nv = 20;
ne = 73;

edges = [|  1, 4  |  1, 7  |  1, 10  |  1, 11  |  1, 14  |  1, 18  |  1, 20  |  2, 3  |  2, 5  |  2, 8  |  2, 12  |  2, 14  |  2, 15  |  2, 16  |  3, 4  |  3, 5  |  3, 8  |  3, 9  |  3, 12  |  3, 13  |  3, 14  |  3, 15  |  4, 7  |  4, 10  |  4, 15  |  4, 16  |  4, 17  |  4, 18  |  4, 20  |  5, 6  |  5, 7  |  5, 9  |  5, 10  |  5, 13  |  5, 15  |  5, 18  |  6, 8  |  6, 10  |  6, 13  |  6, 14  |  6, 15  |  6, 18  |  6, 20  |  7, 9  |  7, 13  |  7, 16  |  7, 20  |  8, 10  |  8, 14  |  8, 15  |  8, 16  |  8, 18  |  9, 11  |  9, 14  |  9, 16  |  9, 18  |  10, 11  |  10, 18  |  11, 15  |  12, 14  |  12, 16  |  12, 17  |  12, 18  |  12, 20  |  13, 15  |  13, 18  |  13, 19  |  14, 20  |  15, 16  |  15, 17  |  15, 20  |  16, 17  |  19, 20  |];
