% Generated Graph Coloring Instance
nc = 3;
nv = 20;
ne = 106;

edges = [|  1, 2  |  1, 5  |  1, 6  |  1, 8  |  1, 9  |  1, 15  |  1, 16  |  1, 18  |  2, 3  |  2, 5  |  2, 6  |  2, 7  |  2, 8  |  2, 9  |  2, 14  |  2, 18  |  3, 4  |  3, 5  |  3, 8  |  3, 9  |  3, 10  |  3, 12  |  3, 14  |  3, 16  |  3, 18  |  4, 6  |  4, 8  |  4, 11  |  4, 12  |  4, 13  |  4, 14  |  4, 19  |  4, 20  |  5, 9  |  5, 12  |  5, 14  |  5, 16  |  5, 17  |  5, 19  |  5, 20  |  6, 8  |  6, 10  |  6, 11  |  6, 12  |  6, 15  |  6, 18  |  6, 20  |  7, 9  |  7, 12  |  7, 13  |  7, 15  |  7, 16  |  7, 17  |  7, 18  |  7, 20  |  8, 9  |  8, 11  |  8, 12  |  8, 15  |  8, 16  |  8, 18  |  8, 19  |  8, 20  |  9, 11  |  9, 12  |  9, 13  |  9, 15  |  9, 16  |  9, 18  |  9, 19  |  10, 12  |  10, 13  |  10, 14  |  10, 15  |  10, 16  |  10, 19  |  10, 20  |  11, 13  |  11, 14  |  11, 16  |  11, 18  |  11, 19  |  11, 20  |  12, 13  |  12, 14  |  12, 17  |  12, 18  |  12, 20  |  13, 15  |  13, 16  |  13, 17  |  14, 15  |  14, 16  |  14, 18  |  14, 19  |  15, 17  |  15, 19  |  16, 17  |  16, 18  |  16, 19  |  17, 18  |  17, 19  |  17, 20  |  18, 19  |  18, 20  |  19, 20  |];
