% Generated Graph Coloring Instance
nc = 3;
nv = 16;
ne = 78;

edges = [|  1, 2  |  1, 6  |  1, 8  |  1, 9  |  1, 11  |  1, 12  |  1, 13  |  1, 15  |  1, 16  |  2, 3  |  2, 4  |  2, 5  |  2, 7  |  2, 8  |  2, 9  |  2, 10  |  2, 13  |  3, 4  |  3, 5  |  3, 7  |  3, 8  |  3, 9  |  3, 10  |  3, 11  |  3, 12  |  3, 13  |  3, 14  |  4, 6  |  4, 7  |  4, 8  |  4, 9  |  4, 10  |  4, 11  |  4, 12  |  4, 13  |  4, 14  |  4, 15  |  4, 16  |  5, 10  |  5, 12  |  5, 13  |  5, 14  |  6, 10  |  6, 12  |  6, 14  |  6, 15  |  7, 8  |  7, 9  |  7, 12  |  7, 14  |  7, 15  |  7, 16  |  8, 9  |  8, 10  |  8, 12  |  8, 13  |  8, 14  |  8, 15  |  9, 10  |  9, 11  |  9, 12  |  9, 14  |  9, 16  |  10, 12  |  10, 13  |  10, 14  |  10, 15  |  11, 12  |  11, 13  |  11, 14  |  11, 15  |  12, 13  |  12, 14  |  13, 14  |  13, 15  |  14, 15  |  14, 16  |  15, 16  |];
