% Generated Graph Coloring Instance
nc = 11;
nv = 20;
ne = 48;

edges = [|  1, 5  |  1, 11  |  1, 18  |  2, 4  |  2, 6  |  2, 8  |  2, 12  |  2, 15  |  2, 17  |  2, 19  |  3, 4  |  3, 9  |  3, 13  |  3, 14  |  3, 16  |  4, 7  |  4, 8  |  4, 13  |  4, 19  |  4, 20  |  5, 6  |  5, 8  |  5, 10  |  5, 14  |  5, 17  |  6, 10  |  6, 12  |  6, 20  |  8, 9  |  8, 13  |  8, 20  |  9, 14  |  9, 18  |  10, 17  |  10, 19  |  10, 20  |  11, 14  |  11, 15  |  11, 17  |  11, 20  |  12, 15  |  12, 16  |  12, 17  |  13, 17  |  14, 17  |  15, 18  |  18, 19  |  18, 20  |];
