% Generated Graph Coloring Instance
nc = 13;
nv = 16;
ne = 55;

edges = [|  1, 3  |  1, 4  |  1, 6  |  1, 7  |  1, 9  |  1, 10  |  1, 14  |  1, 15  |  2, 4  |  2, 6  |  2, 7  |  2, 8  |  2, 13  |  3, 5  |  3, 6  |  3, 7  |  3, 8  |  3, 9  |  3, 13  |  3, 14  |  3, 15  |  3, 16  |  4, 6  |  4, 10  |  4, 11  |  4, 13  |  4, 16  |  5, 6  |  5, 7  |  5, 9  |  5, 11  |  5, 13  |  5, 16  |  6, 7  |  6, 9  |  6, 10  |  6, 14  |  6, 15  |  6, 16  |  7, 8  |  7, 9  |  7, 11  |  7, 12  |  7, 14  |  8, 10  |  8, 14  |  11, 12  |  11, 13  |  11, 14  |  11, 15  |  12, 13  |  12, 16  |  13, 16  |  14, 16  |  15, 16  |];
