% Generated Graph Coloring Instance
nc = 3;
nv = 18;
ne = 65;

edges = [|  1, 2  |  1, 3  |  1, 4  |  1, 5  |  1, 8  |  1, 12  |  1, 14  |  1, 16  |  1, 17  |  2, 3  |  2, 5  |  2, 7  |  2, 9  |  2, 10  |  2, 12  |  2, 13  |  2, 15  |  2, 17  |  2, 18  |  3, 6  |  3, 7  |  3, 8  |  3, 9  |  3, 11  |  3, 13  |  3, 14  |  3, 15  |  3, 17  |  4, 8  |  4, 9  |  4, 11  |  4, 12  |  4, 15  |  4, 17  |  4, 18  |  5, 8  |  5, 10  |  5, 14  |  5, 18  |  6, 8  |  6, 13  |  6, 15  |  7, 8  |  7, 13  |  7, 17  |  8, 10  |  8, 11  |  8, 13  |  8, 14  |  8, 17  |  9, 11  |  9, 13  |  9, 14  |  10, 12  |  10, 14  |  10, 17  |  10, 18  |  11, 14  |  12, 17  |  13, 14  |  13, 17  |  13, 18  |  14, 16  |  14, 18  |  17, 18  |];
