% Generated Graph Coloring Instance
nc = 5;
nv = 18;
ne = 63;

edges = [|  1, 6  |  1, 8  |  1, 9  |  1, 10  |  1, 13  |  1, 16  |  2, 3  |  2, 4  |  2, 6  |  2, 9  |  2, 10  |  2, 11  |  2, 13  |  2, 14  |  2, 15  |  2, 16  |  2, 18  |  3, 6  |  3, 7  |  3, 13  |  3, 15  |  3, 16  |  3, 17  |  3, 18  |  4, 14  |  4, 15  |  4, 16  |  4, 18  |  5, 7  |  5, 9  |  5, 11  |  5, 14  |  5, 16  |  5, 18  |  6, 7  |  6, 8  |  6, 14  |  6, 15  |  6, 16  |  6, 17  |  7, 8  |  7, 9  |  7, 17  |  8, 15  |  9, 13  |  9, 15  |  9, 17  |  10, 12  |  10, 14  |  10, 17  |  10, 18  |  11, 12  |  11, 13  |  11, 14  |  11, 15  |  12, 13  |  12, 14  |  13, 14  |  13, 15  |  13, 17  |  14, 16  |  14, 18  |  15, 18  |];
