% Generated Graph Coloring Instance
nc = 3;
nv = 18;
ne = 86;

edges = [|  1, 2  |  1, 4  |  1, 6  |  1, 7  |  1, 8  |  1, 9  |  1, 10  |  1, 11  |  1, 12  |  1, 13  |  1, 15  |  1, 18  |  2, 3  |  2, 4  |  2, 5  |  2, 6  |  2, 7  |  2, 9  |  2, 11  |  2, 13  |  2, 18  |  3, 4  |  3, 5  |  3, 7  |  3, 8  |  3, 10  |  3, 11  |  3, 12  |  3, 13  |  3, 15  |  3, 16  |  3, 17  |  4, 5  |  4, 7  |  4, 11  |  4, 12  |  4, 15  |  4, 18  |  5, 8  |  5, 9  |  5, 11  |  5, 15  |  5, 16  |  5, 17  |  6, 9  |  6, 10  |  6, 11  |  6, 12  |  6, 13  |  6, 14  |  6, 17  |  7, 9  |  7, 11  |  7, 13  |  7, 15  |  7, 16  |  7, 17  |  7, 18  |  8, 9  |  8, 11  |  8, 13  |  8, 14  |  8, 18  |  9, 11  |  9, 12  |  9, 15  |  9, 16  |  9, 17  |  10, 11  |  10, 12  |  10, 13  |  10, 18  |  11, 12  |  11, 17  |  12, 13  |  12, 15  |  12, 16  |  12, 18  |  13, 15  |  13, 17  |  13, 18  |  14, 15  |  14, 16  |  15, 16  |  16, 17  |  16, 18  |];
