% Generated Graph Coloring Instance
nc = 15;
nv = 16;
ne = 48;

edges = [|  1, 3  |  1, 5  |  1, 6  |  1, 9  |  1, 11  |  1, 12  |  1, 14  |  2, 3  |  2, 6  |  2, 8  |  2, 11  |  2, 12  |  2, 13  |  2, 14  |  3, 6  |  3, 8  |  3, 9  |  3, 12  |  3, 16  |  4, 5  |  4, 8  |  4, 9  |  4, 10  |  4, 13  |  4, 15  |  5, 9  |  5, 11  |  5, 14  |  5, 16  |  6, 7  |  6, 9  |  6, 10  |  6, 16  |  7, 15  |  8, 9  |  8, 13  |  8, 15  |  9, 16  |  10, 12  |  10, 14  |  10, 15  |  11, 12  |  11, 14  |  11, 15  |  13, 14  |  13, 16  |  14, 15  |  14, 16  |];
