% Generated Graph Coloring Instance
nc = 7;
nv = 16;
ne = 75;

edges = [|  1, 6  |  1, 7  |  1, 9  |  1, 12  |  1, 13  |  1, 16  |  2, 4  |  2, 5  |  2, 6  |  2, 9  |  2, 10  |  2, 11  |  2, 13  |  2, 14  |  2, 15  |  2, 16  |  3, 4  |  3, 6  |  3, 9  |  3, 11  |  3, 14  |  3, 15  |  4, 5  |  4, 6  |  4, 7  |  4, 8  |  4, 10  |  4, 11  |  4, 14  |  4, 15  |  4, 16  |  5, 6  |  5, 7  |  5, 8  |  5, 10  |  5, 11  |  5, 12  |  5, 13  |  5, 14  |  5, 16  |  6, 8  |  6, 10  |  6, 11  |  6, 12  |  6, 13  |  6, 15  |  6, 16  |  7, 9  |  7, 10  |  7, 15  |  7, 16  |  8, 9  |  8, 11  |  8, 13  |  8, 14  |  9, 10  |  9, 11  |  9, 12  |  9, 13  |  9, 14  |  9, 16  |  10, 11  |  10, 12  |  10, 13  |  10, 14  |  10, 15  |  10, 16  |  11, 12  |  11, 13  |  11, 15  |  11, 16  |  12, 13  |  12, 14  |  12, 16  |  13, 15  |];
