% Generated Graph Coloring Instance
nc = 15;
nv = 18;
ne = 55;

edges = [|  1, 5  |  1, 10  |  1, 12  |  1, 13  |  1, 15  |  2, 5  |  3, 5  |  3, 7  |  3, 8  |  3, 9  |  3, 10  |  3, 11  |  3, 12  |  3, 13  |  4, 5  |  4, 6  |  4, 7  |  4, 10  |  4, 13  |  4, 14  |  4, 16  |  5, 7  |  5, 11  |  5, 14  |  5, 18  |  6, 8  |  6, 9  |  6, 15  |  6, 16  |  6, 18  |  7, 10  |  7, 16  |  7, 17  |  7, 18  |  8, 9  |  8, 14  |  8, 16  |  9, 12  |  9, 13  |  9, 14  |  9, 15  |  9, 18  |  10, 14  |  10, 15  |  10, 16  |  11, 14  |  11, 15  |  11, 17  |  11, 18  |  12, 15  |  13, 16  |  14, 15  |  14, 18  |  15, 18  |  16, 18  |];
