% Generated Graph Coloring Instance
nc = 5;
nv = 20;
ne = 49;

edges = [|  1, 9  |  2, 10  |  2, 12  |  2, 17  |  3, 4  |  3, 6  |  3, 17  |  3, 19  |  4, 5  |  4, 10  |  4, 14  |  4, 18  |  5, 13  |  5, 16  |  5, 17  |  5, 19  |  6, 8  |  6, 9  |  6, 14  |  6, 17  |  7, 9  |  8, 9  |  8, 11  |  8, 13  |  8, 16  |  8, 18  |  8, 19  |  8, 20  |  9, 14  |  9, 15  |  9, 19  |  10, 14  |  10, 15  |  10, 18  |  11, 14  |  11, 15  |  11, 19  |  12, 15  |  12, 16  |  13, 15  |  13, 18  |  13, 19  |  14, 15  |  15, 19  |  16, 17  |  16, 18  |  16, 19  |  17, 20  |  18, 20  |];
