% Generated Graph Coloring Instance
nc = 7;
nv = 20;
ne = 79;

edges = [|  1, 2  |  1, 3  |  1, 8  |  1, 13  |  1, 14  |  1, 15  |  1, 16  |  2, 4  |  2, 9  |  2, 11  |  2, 13  |  2, 14  |  2, 17  |  3, 7  |  3, 10  |  3, 13  |  3, 18  |  3, 19  |  4, 6  |  4, 7  |  4, 8  |  4, 9  |  4, 10  |  4, 11  |  4, 14  |  4, 16  |  4, 18  |  4, 19  |  5, 7  |  5, 8  |  5, 9  |  5, 11  |  5, 12  |  5, 16  |  5, 17  |  5, 18  |  6, 7  |  6, 11  |  6, 15  |  6, 16  |  6, 20  |  7, 11  |  7, 13  |  7, 14  |  7, 16  |  7, 17  |  8, 10  |  8, 13  |  8, 14  |  8, 16  |  9, 11  |  9, 14  |  9, 16  |  9, 17  |  9, 18  |  9, 19  |  10, 13  |  10, 14  |  10, 17  |  10, 20  |  11, 13  |  11, 15  |  11, 16  |  12, 13  |  12, 14  |  12, 17  |  12, 18  |  12, 19  |  13, 18  |  13, 20  |  14, 15  |  14, 16  |  14, 20  |  15, 16  |  15, 19  |  16, 17  |  16, 18  |  17, 20  |  19, 20  |];
