% Generated Graph Coloring Instance
nc = 15;
nv = 20;
ne = 126;

edges = [|  1, 2  |  1, 3  |  1, 4  |  1, 6  |  1, 7  |  1, 8  |  1, 9  |  1, 11  |  1, 13  |  1, 15  |  1, 16  |  1, 18  |  1, 19  |  1, 20  |  2, 3  |  2, 4  |  2, 6  |  2, 7  |  2, 8  |  2, 9  |  2, 10  |  2, 11  |  2, 13  |  2, 14  |  2, 15  |  2, 16  |  2, 17  |  2, 20  |  3, 7  |  3, 10  |  3, 12  |  3, 14  |  3, 16  |  3, 19  |  3, 20  |  4, 6  |  4, 7  |  4, 8  |  4, 9  |  4, 12  |  4, 13  |  4, 14  |  4, 18  |  4, 20  |  5, 6  |  5, 8  |  5, 9  |  5, 10  |  5, 11  |  5, 13  |  5, 14  |  5, 15  |  5, 16  |  5, 17  |  5, 19  |  5, 20  |  6, 8  |  6, 9  |  6, 12  |  6, 13  |  6, 14  |  6, 15  |  6, 16  |  6, 17  |  6, 18  |  6, 19  |  6, 20  |  7, 8  |  7, 9  |  7, 12  |  7, 13  |  7, 16  |  7, 17  |  7, 20  |  8, 10  |  8, 11  |  8, 13  |  8, 14  |  8, 15  |  8, 16  |  8, 18  |  8, 19  |  9, 10  |  9, 13  |  9, 14  |  9, 15  |  9, 17  |  9, 19  |  9, 20  |  10, 11  |  10, 12  |  10, 13  |  10, 15  |  10, 18  |  10, 19  |  10, 20  |  11, 13  |  11, 14  |  11, 16  |  11, 19  |  12, 13  |  12, 15  |  12, 16  |  12, 17  |  12, 18  |  12, 19  |  12, 20  |  13, 14  |  13, 15  |  13, 17  |  13, 18  |  13, 19  |  14, 15  |  14, 16  |  14, 17  |  14, 18  |  14, 19  |  15, 17  |  15, 18  |  15, 19  |  15, 20  |  16, 17  |  16, 20  |  17, 18  |  17, 20  |  18, 19  |];
