% Generated Graph Coloring Instance
nc = 13;
nv = 16;
ne = 70;

edges = [|  1, 3  |  1, 4  |  1, 5  |  1, 6  |  1, 7  |  1, 8  |  1, 15  |  2, 4  |  2, 6  |  2, 7  |  2, 8  |  2, 9  |  2, 10  |  2, 11  |  2, 13  |  2, 15  |  2, 16  |  3, 4  |  3, 5  |  3, 6  |  3, 7  |  3, 8  |  3, 10  |  3, 16  |  4, 6  |  4, 10  |  4, 12  |  4, 15  |  4, 16  |  5, 7  |  5, 8  |  5, 9  |  5, 11  |  5, 12  |  5, 15  |  5, 16  |  6, 7  |  6, 9  |  6, 10  |  6, 11  |  6, 12  |  6, 13  |  6, 14  |  7, 9  |  7, 10  |  7, 11  |  7, 15  |  8, 10  |  8, 11  |  8, 12  |  8, 13  |  8, 14  |  8, 15  |  8, 16  |  9, 10  |  9, 13  |  9, 14  |  10, 11  |  10, 12  |  10, 14  |  10, 15  |  10, 16  |  11, 12  |  11, 13  |  11, 14  |  11, 16  |  13, 14  |  13, 15  |  13, 16  |  14, 15  |];
