% Generated Graph Coloring Instance
nc = 13;
nv = 20;
ne = 69;

edges = [|  1, 2  |  1, 5  |  1, 11  |  1, 18  |  2, 9  |  2, 13  |  2, 15  |  2, 16  |  2, 17  |  2, 19  |  3, 4  |  3, 5  |  3, 7  |  3, 19  |  3, 20  |  4, 5  |  4, 10  |  4, 11  |  4, 13  |  4, 14  |  4, 15  |  4, 19  |  4, 20  |  5, 15  |  5, 17  |  6, 9  |  6, 10  |  6, 11  |  6, 12  |  6, 13  |  6, 14  |  6, 15  |  6, 20  |  7, 8  |  7, 9  |  7, 11  |  7, 12  |  7, 13  |  7, 17  |  7, 19  |  7, 20  |  9, 11  |  9, 14  |  9, 15  |  9, 17  |  9, 20  |  10, 12  |  10, 15  |  10, 18  |  11, 13  |  11, 14  |  11, 15  |  11, 20  |  12, 13  |  12, 14  |  12, 15  |  12, 17  |  13, 15  |  13, 20  |  14, 15  |  14, 17  |  14, 20  |  15, 16  |  15, 19  |  15, 20  |  16, 18  |  17, 18  |  18, 20  |  19, 20  |];
