% Generated Graph Coloring Instance
nc = 5;
nv = 16;
ne = 44;

edges = [|  1, 5  |  1, 6  |  1, 12  |  1, 14  |  2, 3  |  2, 4  |  2, 5  |  2, 6  |  2, 11  |  2, 15  |  3, 4  |  3, 7  |  3, 8  |  3, 10  |  3, 11  |  3, 12  |  3, 14  |  4, 5  |  4, 7  |  4, 9  |  4, 13  |  5, 13  |  5, 14  |  5, 15  |  6, 9  |  6, 10  |  6, 12  |  6, 13  |  6, 14  |  6, 15  |  7, 8  |  7, 9  |  7, 12  |  8, 10  |  8, 14  |  8, 16  |  9, 12  |  9, 13  |  10, 12  |  10, 13  |  10, 14  |  11, 14  |  13, 16  |  15, 16  |];
