% Generated Graph Coloring Instance
nc = 9;
nv = 16;
ne = 67;

edges = [|  1, 2  |  1, 4  |  1, 5  |  1, 6  |  1, 7  |  1, 8  |  1, 9  |  1, 10  |  1, 11  |  1, 16  |  2, 4  |  2, 6  |  2, 7  |  2, 9  |  2, 11  |  2, 13  |  2, 15  |  2, 16  |  3, 4  |  3, 5  |  3, 7  |  3, 10  |  3, 11  |  3, 12  |  3, 13  |  3, 14  |  3, 15  |  3, 16  |  4, 5  |  4, 7  |  4, 8  |  4, 9  |  4, 10  |  4, 11  |  4, 13  |  4, 14  |  4, 15  |  4, 16  |  5, 6  |  5, 7  |  5, 8  |  5, 9  |  5, 11  |  5, 12  |  6, 10  |  6, 12  |  6, 13  |  6, 16  |  7, 8  |  7, 10  |  7, 11  |  7, 14  |  7, 15  |  8, 10  |  8, 12  |  8, 16  |  9, 11  |  9, 12  |  9, 13  |  9, 14  |  10, 11  |  10, 15  |  10, 16  |  11, 14  |  11, 15  |  11, 16  |  14, 16  |];
