% Generated Graph Coloring Instance
nc = 7;
nv = 20;
ne = 78;

edges = [|  1, 2  |  1, 8  |  1, 10  |  1, 11  |  1, 18  |  2, 3  |  2, 4  |  2, 5  |  2, 10  |  2, 13  |  2, 18  |  2, 19  |  3, 5  |  3, 7  |  3, 9  |  3, 10  |  3, 11  |  3, 13  |  3, 14  |  3, 15  |  4, 5  |  4, 7  |  4, 8  |  4, 13  |  4, 16  |  4, 18  |  4, 19  |  5, 6  |  5, 7  |  5, 13  |  5, 14  |  5, 15  |  5, 18  |  5, 20  |  6, 11  |  6, 13  |  6, 14  |  6, 18  |  6, 19  |  7, 8  |  7, 9  |  7, 11  |  7, 13  |  7, 17  |  7, 19  |  7, 20  |  8, 10  |  8, 12  |  8, 15  |  8, 16  |  8, 18  |  8, 20  |  9, 10  |  9, 12  |  9, 13  |  9, 15  |  9, 17  |  9, 18  |  10, 16  |  10, 17  |  11, 12  |  11, 17  |  11, 18  |  12, 13  |  12, 15  |  12, 20  |  13, 15  |  13, 19  |  13, 20  |  14, 15  |  14, 19  |  14, 20  |  15, 18  |  15, 20  |  16, 20  |  17, 19  |  18, 19  |  19, 20  |];
