% Generated Graph Coloring Instance
nc = 9;
nv = 20;
ne = 113;

edges = [|  1, 2  |  1, 5  |  1, 6  |  1, 7  |  1, 10  |  1, 11  |  1, 12  |  1, 13  |  1, 15  |  1, 16  |  1, 18  |  1, 20  |  2, 4  |  2, 5  |  2, 6  |  2, 7  |  2, 9  |  2, 11  |  2, 12  |  2, 16  |  2, 18  |  2, 19  |  2, 20  |  3, 4  |  3, 5  |  3, 7  |  3, 8  |  3, 9  |  3, 10  |  3, 11  |  3, 13  |  3, 14  |  3, 15  |  3, 16  |  3, 17  |  3, 18  |  3, 19  |  4, 5  |  4, 7  |  4, 10  |  4, 11  |  4, 12  |  4, 14  |  4, 15  |  5, 6  |  5, 7  |  5, 8  |  5, 13  |  5, 16  |  5, 17  |  5, 19  |  5, 20  |  6, 7  |  6, 8  |  6, 9  |  6, 10  |  6, 11  |  6, 12  |  6, 13  |  6, 14  |  6, 15  |  6, 17  |  6, 19  |  6, 20  |  7, 8  |  7, 10  |  7, 11  |  7, 13  |  7, 14  |  7, 15  |  7, 17  |  7, 19  |  8, 10  |  8, 12  |  8, 13  |  8, 15  |  8, 16  |  8, 17  |  8, 19  |  8, 20  |  9, 10  |  9, 11  |  9, 12  |  9, 13  |  9, 19  |  10, 11  |  10, 16  |  10, 17  |  10, 20  |  11, 13  |  11, 16  |  11, 17  |  11, 18  |  11, 19  |  11, 20  |  12, 13  |  12, 19  |  12, 20  |  13, 16  |  13, 17  |  13, 19  |  14, 15  |  14, 17  |  14, 18  |  14, 19  |  14, 20  |  15, 17  |  16, 19  |  16, 20  |  17, 19  |  17, 20  |  18, 20  |  19, 20  |];
