% Generated Graph Coloring Instance
nc = 13;
nv = 18;
ne = 55;

edges = [|  1, 3  |  1, 5  |  1, 7  |  1, 9  |  1, 10  |  1, 11  |  2, 4  |  2, 6  |  2, 8  |  2, 10  |  2, 13  |  2, 15  |  3, 4  |  3, 5  |  3, 6  |  3, 11  |  3, 13  |  4, 5  |  4, 6  |  4, 11  |  4, 17  |  5, 6  |  5, 8  |  5, 9  |  5, 13  |  5, 14  |  5, 15  |  5, 16  |  5, 18  |  6, 8  |  6, 9  |  6, 10  |  6, 11  |  6, 12  |  6, 13  |  6, 16  |  6, 17  |  7, 11  |  7, 16  |  7, 18  |  8, 13  |  8, 14  |  8, 15  |  8, 18  |  9, 10  |  10, 11  |  11, 17  |  12, 13  |  12, 15  |  12, 18  |  13, 14  |  13, 17  |  14, 17  |  16, 17  |  17, 18  |];
