% Generated Graph Coloring Instance
nc = 13;
nv = 18;
ne = 53;

edges = [|  1, 4  |  1, 5  |  1, 6  |  1, 12  |  1, 16  |  1, 17  |  2, 4  |  2, 7  |  2, 9  |  2, 10  |  2, 13  |  2, 15  |  2, 17  |  3, 5  |  3, 7  |  3, 12  |  3, 14  |  3, 15  |  4, 5  |  4, 7  |  4, 8  |  4, 14  |  5, 8  |  5, 11  |  5, 13  |  5, 14  |  5, 16  |  6, 10  |  6, 14  |  6, 15  |  6, 16  |  7, 12  |  7, 17  |  8, 9  |  8, 11  |  8, 15  |  8, 17  |  8, 18  |  9, 11  |  9, 15  |  9, 17  |  10, 13  |  10, 14  |  11, 12  |  11, 15  |  11, 16  |  11, 17  |  13, 15  |  14, 15  |  14, 17  |  16, 17  |  16, 18  |  17, 18  |];
