% Generated Graph Coloring Instance
nc = 9;
nv = 20;
ne = 115;

edges = [|  1, 2  |  1, 3  |  1, 4  |  1, 5  |  1, 6  |  1, 7  |  1, 9  |  1, 10  |  1, 16  |  1, 18  |  1, 20  |  2, 3  |  2, 4  |  2, 5  |  2, 8  |  2, 9  |  2, 11  |  2, 12  |  2, 14  |  2, 17  |  2, 19  |  2, 20  |  3, 4  |  3, 5  |  3, 9  |  3, 10  |  3, 11  |  3, 12  |  3, 13  |  3, 15  |  3, 16  |  3, 17  |  3, 18  |  4, 6  |  4, 9  |  4, 12  |  4, 14  |  4, 16  |  4, 17  |  4, 18  |  5, 8  |  5, 9  |  5, 10  |  5, 11  |  5, 12  |  5, 13  |  5, 14  |  5, 15  |  5, 16  |  5, 17  |  5, 18  |  5, 19  |  6, 7  |  6, 8  |  6, 9  |  6, 10  |  6, 12  |  6, 13  |  6, 16  |  6, 18  |  6, 19  |  6, 20  |  7, 8  |  7, 9  |  7, 10  |  7, 12  |  7, 13  |  7, 15  |  7, 16  |  7, 19  |  8, 9  |  8, 11  |  8, 13  |  8, 15  |  8, 16  |  8, 17  |  8, 18  |  8, 20  |  9, 10  |  9, 13  |  9, 20  |  10, 12  |  10, 13  |  10, 14  |  10, 15  |  10, 16  |  10, 17  |  10, 18  |  10, 20  |  11, 12  |  11, 15  |  11, 16  |  11, 18  |  12, 14  |  12, 18  |  13, 14  |  13, 15  |  13, 16  |  13, 20  |  14, 15  |  14, 16  |  14, 17  |  14, 18  |  14, 19  |  14, 20  |  15, 16  |  15, 18  |  15, 19  |  16, 17  |  16, 18  |  16, 19  |  17, 18  |  17, 19  |  17, 20  |  19, 20  |];
