% Generated Graph Coloring Instance
nc = 5;
nv = 16;
ne = 49;

edges = [|  1, 2  |  1, 3  |  1, 9  |  1, 14  |  1, 16  |  2, 3  |  2, 4  |  2, 5  |  2, 8  |  2, 15  |  2, 16  |  3, 5  |  3, 10  |  3, 11  |  3, 16  |  4, 8  |  4, 10  |  4, 13  |  5, 6  |  5, 7  |  5, 9  |  5, 10  |  5, 12  |  5, 13  |  5, 14  |  5, 15  |  5, 16  |  6, 7  |  6, 9  |  6, 11  |  6, 14  |  7, 8  |  7, 10  |  7, 12  |  8, 13  |  8, 14  |  8, 15  |  9, 11  |  9, 12  |  9, 15  |  9, 16  |  10, 11  |  10, 12  |  10, 13  |  11, 14  |  11, 16  |  12, 15  |  12, 16  |  13, 16  |];
