% Generated Graph Coloring Instance
nc = 5;
nv = 14;
ne = 46;

edges = [|  1, 2  |  1, 4  |  1, 5  |  1, 7  |  1, 10  |  1, 12  |  2, 3  |  2, 4  |  2, 6  |  2, 8  |  2, 9  |  2, 10  |  2, 11  |  2, 14  |  3, 5  |  3, 7  |  3, 10  |  3, 12  |  3, 13  |  3, 14  |  4, 5  |  4, 7  |  4, 9  |  4, 12  |  4, 13  |  5, 7  |  5, 9  |  5, 10  |  5, 11  |  5, 13  |  5, 14  |  6, 12  |  6, 14  |  7, 10  |  7, 11  |  7, 12  |  8, 10  |  8, 12  |  8, 13  |  9, 10  |  9, 11  |  9, 13  |  10, 12  |  10, 13  |  11, 12  |  13, 14  |];
