% Generated Graph Coloring Instance
nc = 15;
nv = 18;
ne = 97;

edges = [|  1, 5  |  1, 7  |  1, 9  |  1, 10  |  1, 12  |  1, 14  |  1, 16  |  1, 17  |  1, 18  |  2, 4  |  2, 7  |  2, 9  |  2, 10  |  2, 11  |  2, 12  |  2, 13  |  2, 14  |  2, 15  |  2, 17  |  2, 18  |  3, 5  |  3, 6  |  3, 7  |  3, 8  |  3, 9  |  3, 10  |  3, 13  |  3, 15  |  3, 16  |  3, 17  |  4, 5  |  4, 7  |  4, 8  |  4, 10  |  4, 11  |  4, 13  |  4, 16  |  4, 17  |  4, 18  |  5, 7  |  5, 8  |  5, 11  |  5, 12  |  5, 14  |  5, 15  |  5, 16  |  5, 17  |  6, 8  |  6, 9  |  6, 11  |  6, 12  |  6, 13  |  6, 14  |  6, 15  |  6, 18  |  7, 9  |  7, 11  |  7, 13  |  7, 14  |  7, 15  |  7, 16  |  7, 18  |  8, 9  |  8, 13  |  8, 14  |  8, 15  |  8, 16  |  8, 18  |  9, 12  |  9, 13  |  9, 16  |  9, 17  |  9, 18  |  10, 12  |  10, 13  |  10, 14  |  10, 15  |  10, 16  |  10, 17  |  10, 18  |  11, 13  |  11, 15  |  11, 16  |  11, 17  |  12, 13  |  12, 15  |  12, 16  |  12, 18  |  13, 14  |  13, 15  |  13, 16  |  13, 18  |  14, 15  |  14, 16  |  14, 18  |  15, 17  |  15, 18  |];
