% Generated Graph Coloring Instance
nc = 7;
nv = 16;
ne = 52;

edges = [|  1, 2  |  1, 3  |  1, 4  |  1, 5  |  1, 8  |  1, 10  |  1, 12  |  1, 14  |  1, 15  |  1, 16  |  2, 5  |  2, 6  |  2, 9  |  2, 11  |  2, 14  |  2, 15  |  2, 16  |  3, 6  |  3, 12  |  3, 13  |  3, 14  |  3, 15  |  4, 9  |  4, 12  |  4, 13  |  4, 14  |  4, 16  |  5, 9  |  5, 11  |  5, 14  |  5, 15  |  6, 8  |  6, 11  |  6, 16  |  7, 12  |  7, 13  |  7, 14  |  7, 15  |  7, 16  |  8, 10  |  8, 11  |  8, 12  |  8, 13  |  8, 15  |  9, 12  |  10, 14  |  10, 15  |  11, 15  |  11, 16  |  12, 13  |  13, 15  |  15, 16  |];
