% Generated Graph Coloring Instance
nc = 7;
nv = 16;
ne = 69;

edges = [|  1, 2  |  1, 3  |  1, 4  |  1, 5  |  1, 6  |  1, 8  |  1, 9  |  1, 13  |  1, 14  |  2, 3  |  2, 5  |  2, 6  |  2, 7  |  2, 11  |  3, 5  |  3, 7  |  3, 8  |  3, 9  |  3, 10  |  3, 11  |  3, 13  |  3, 15  |  4, 6  |  4, 7  |  4, 10  |  4, 12  |  4, 13  |  4, 14  |  4, 16  |  5, 8  |  5, 9  |  5, 10  |  5, 12  |  5, 13  |  5, 15  |  6, 9  |  6, 10  |  6, 11  |  6, 13  |  6, 16  |  7, 8  |  7, 9  |  7, 10  |  7, 11  |  7, 15  |  8, 10  |  8, 11  |  8, 12  |  8, 16  |  9, 11  |  9, 12  |  9, 13  |  9, 14  |  9, 15  |  10, 11  |  10, 13  |  10, 14  |  10, 15  |  11, 12  |  11, 14  |  11, 15  |  12, 13  |  12, 14  |  12, 15  |  12, 16  |  13, 16  |  14, 15  |  14, 16  |  15, 16  |];
