% Generated Graph Coloring Instance
nc = 9;
nv = 20;
ne = 75;

edges = [|  1, 2  |  1, 3  |  1, 6  |  1, 8  |  1, 19  |  1, 20  |  2, 4  |  2, 7  |  2, 10  |  2, 11  |  2, 13  |  2, 15  |  2, 16  |  2, 18  |  3, 4  |  3, 5  |  3, 9  |  3, 19  |  4, 5  |  4, 7  |  4, 11  |  4, 16  |  4, 17  |  4, 18  |  4, 20  |  5, 11  |  5, 12  |  5, 18  |  6, 7  |  6, 9  |  6, 10  |  6, 12  |  6, 14  |  6, 20  |  7, 8  |  7, 11  |  7, 12  |  7, 13  |  7, 14  |  7, 20  |  8, 9  |  8, 10  |  8, 11  |  8, 12  |  8, 14  |  8, 15  |  8, 17  |  9, 14  |  9, 15  |  9, 16  |  9, 19  |  10, 13  |  10, 14  |  10, 15  |  10, 16  |  10, 17  |  10, 18  |  10, 19  |  10, 20  |  11, 16  |  11, 18  |  11, 20  |  12, 15  |  13, 15  |  13, 18  |  13, 19  |  13, 20  |  14, 18  |  14, 19  |  15, 17  |  15, 20  |  16, 19  |  17, 18  |  18, 20  |  19, 20  |];
