% Generated Graph Coloring Instance
nc = 3;
nv = 20;
ne = 71;

edges = [|  1, 3  |  1, 8  |  1, 10  |  1, 16  |  1, 18  |  1, 19  |  2, 4  |  2, 8  |  2, 9  |  2, 12  |  2, 13  |  2, 14  |  2, 16  |  2, 19  |  3, 4  |  3, 7  |  3, 9  |  3, 10  |  3, 14  |  3, 16  |  3, 17  |  3, 19  |  3, 20  |  4, 6  |  4, 7  |  4, 8  |  4, 15  |  4, 16  |  5, 9  |  5, 11  |  5, 12  |  5, 13  |  5, 14  |  5, 15  |  5, 20  |  6, 9  |  6, 11  |  6, 13  |  6, 16  |  6, 17  |  6, 19  |  6, 20  |  7, 8  |  7, 9  |  7, 12  |  7, 13  |  7, 17  |  7, 18  |  7, 19  |  8, 17  |  8, 20  |  9, 16  |  9, 17  |  9, 19  |  10, 11  |  10, 14  |  10, 15  |  10, 18  |  11, 15  |  12, 14  |  12, 17  |  12, 18  |  13, 14  |  13, 15  |  13, 16  |  13, 19  |  14, 17  |  14, 20  |  15, 16  |  17, 19  |  19, 20  |];
