% Generated Graph Coloring Instance
nc = 15;
nv = 20;
ne = 111;

edges = [|  1, 4  |  1, 7  |  1, 8  |  1, 9  |  1, 10  |  1, 11  |  1, 13  |  1, 14  |  1, 15  |  1, 17  |  1, 18  |  1, 19  |  1, 20  |  2, 5  |  2, 6  |  2, 7  |  2, 8  |  2, 9  |  2, 10  |  2, 11  |  2, 12  |  2, 13  |  2, 15  |  2, 19  |  2, 20  |  3, 4  |  3, 6  |  3, 7  |  3, 9  |  3, 10  |  3, 11  |  3, 15  |  3, 17  |  4, 5  |  4, 6  |  4, 7  |  4, 8  |  4, 9  |  4, 14  |  4, 16  |  4, 18  |  4, 20  |  5, 6  |  5, 9  |  5, 15  |  5, 16  |  5, 17  |  5, 18  |  6, 7  |  6, 11  |  6, 12  |  6, 13  |  6, 14  |  6, 18  |  6, 19  |  7, 10  |  7, 11  |  7, 15  |  7, 16  |  7, 17  |  7, 19  |  8, 9  |  8, 10  |  8, 11  |  8, 12  |  8, 13  |  8, 15  |  8, 16  |  8, 19  |  9, 10  |  9, 12  |  9, 13  |  9, 14  |  9, 15  |  9, 16  |  9, 17  |  9, 18  |  9, 20  |  10, 11  |  10, 14  |  10, 15  |  10, 17  |  10, 20  |  11, 12  |  11, 13  |  11, 15  |  11, 16  |  11, 17  |  11, 19  |  12, 13  |  12, 14  |  12, 15  |  12, 18  |  12, 19  |  12, 20  |  13, 15  |  13, 16  |  13, 17  |  13, 20  |  14, 18  |  15, 16  |  15, 18  |  16, 17  |  16, 18  |  16, 19  |  16, 20  |  17, 18  |  17, 19  |  17, 20  |  18, 19  |  19, 20  |];
