% Generated Graph Coloring Instance
nc = 5;
nv = 18;
ne = 61;

edges = [|  1, 2  |  1, 3  |  1, 4  |  1, 6  |  1, 9  |  1, 14  |  1, 17  |  1, 18  |  2, 5  |  2, 6  |  2, 11  |  2, 16  |  2, 17  |  3, 5  |  3, 6  |  3, 7  |  3, 8  |  3, 15  |  3, 16  |  3, 18  |  4, 8  |  4, 9  |  4, 10  |  4, 11  |  4, 12  |  4, 13  |  4, 16  |  5, 8  |  5, 9  |  5, 10  |  5, 16  |  5, 17  |  5, 18  |  6, 7  |  6, 11  |  6, 12  |  7, 15  |  7, 17  |  8, 10  |  8, 14  |  8, 16  |  8, 18  |  9, 11  |  9, 15  |  9, 16  |  10, 11  |  10, 12  |  10, 14  |  10, 17  |  11, 12  |  11, 16  |  11, 17  |  12, 13  |  13, 16  |  13, 17  |  13, 18  |  14, 17  |  15, 16  |  15, 17  |  16, 17  |  16, 18  |];
