% Generated Graph Coloring Instance
nc = 9;
nv = 16;
ne = 69;

edges = [|  1, 2  |  1, 3  |  1, 4  |  1, 6  |  1, 9  |  1, 10  |  1, 11  |  1, 12  |  1, 14  |  1, 16  |  2, 3  |  2, 5  |  2, 8  |  2, 9  |  2, 10  |  2, 12  |  2, 14  |  3, 4  |  3, 7  |  3, 9  |  3, 11  |  3, 12  |  3, 14  |  4, 7  |  4, 8  |  4, 9  |  4, 10  |  4, 16  |  5, 9  |  5, 10  |  5, 11  |  5, 12  |  5, 13  |  5, 14  |  6, 10  |  6, 13  |  6, 14  |  6, 15  |  7, 9  |  7, 11  |  7, 12  |  7, 13  |  7, 15  |  7, 16  |  8, 9  |  8, 10  |  8, 14  |  8, 16  |  9, 13  |  9, 14  |  10, 11  |  10, 12  |  10, 13  |  10, 14  |  10, 15  |  10, 16  |  11, 12  |  11, 13  |  11, 14  |  11, 16  |  12, 13  |  12, 14  |  12, 15  |  12, 16  |  13, 14  |  13, 15  |  14, 15  |  14, 16  |  15, 16  |];
