% Generated Graph Coloring Instance
nc = 3;
nv = 20;
ne = 86;

edges = [|  1, 2  |  1, 4  |  1, 5  |  1, 10  |  1, 15  |  1, 18  |  1, 20  |  2, 3  |  2, 5  |  2, 12  |  2, 17  |  2, 18  |  2, 19  |  3, 5  |  3, 8  |  3, 9  |  3, 10  |  3, 11  |  3, 12  |  3, 15  |  3, 16  |  3, 17  |  3, 18  |  3, 20  |  4, 8  |  4, 16  |  4, 19  |  5, 6  |  5, 9  |  5, 10  |  5, 12  |  5, 13  |  5, 14  |  5, 15  |  5, 16  |  5, 17  |  5, 20  |  6, 8  |  6, 11  |  6, 14  |  6, 18  |  6, 19  |  6, 20  |  7, 8  |  7, 9  |  7, 10  |  7, 11  |  7, 13  |  7, 15  |  7, 16  |  7, 17  |  7, 20  |  8, 11  |  8, 12  |  8, 13  |  8, 15  |  8, 18  |  8, 19  |  8, 20  |  9, 12  |  9, 14  |  9, 15  |  9, 16  |  9, 18  |  9, 20  |  10, 11  |  10, 12  |  10, 17  |  10, 19  |  11, 14  |  11, 17  |  11, 18  |  12, 13  |  12, 15  |  12, 16  |  13, 16  |  13, 20  |  14, 15  |  14, 16  |  14, 19  |  14, 20  |  15, 16  |  16, 19  |  17, 18  |  17, 19  |  19, 20  |];
