% Generated Graph Coloring Instance
nc = 5;
nv = 16;
ne = 65;

edges = [|  1, 2  |  1, 3  |  1, 5  |  1, 6  |  1, 8  |  1, 10  |  1, 12  |  1, 15  |  2, 3  |  2, 4  |  2, 5  |  2, 6  |  2, 7  |  2, 8  |  2, 9  |  2, 10  |  2, 12  |  2, 14  |  2, 15  |  3, 4  |  3, 5  |  3, 6  |  3, 7  |  3, 8  |  3, 9  |  3, 10  |  3, 12  |  3, 14  |  4, 8  |  4, 9  |  4, 10  |  4, 12  |  4, 14  |  5, 6  |  5, 7  |  5, 8  |  5, 10  |  5, 12  |  5, 13  |  5, 15  |  6, 7  |  6, 9  |  6, 10  |  6, 12  |  6, 13  |  6, 14  |  6, 15  |  6, 16  |  7, 8  |  7, 9  |  7, 10  |  7, 12  |  7, 16  |  8, 10  |  8, 11  |  8, 14  |  8, 16  |  9, 10  |  10, 11  |  10, 13  |  10, 16  |  11, 12  |  12, 13  |  12, 14  |  12, 16  |];
