% Generated Graph Coloring Instance
nc = 15;
nv = 18;
ne = 83;

edges = [|  1, 2  |  1, 5  |  1, 6  |  1, 7  |  1, 9  |  1, 11  |  1, 12  |  1, 13  |  1, 14  |  1, 15  |  1, 18  |  2, 3  |  2, 4  |  2, 5  |  2, 8  |  2, 9  |  2, 10  |  2, 12  |  2, 13  |  2, 14  |  2, 17  |  3, 5  |  3, 8  |  3, 10  |  3, 11  |  3, 12  |  3, 13  |  3, 14  |  3, 18  |  4, 6  |  4, 10  |  4, 12  |  4, 13  |  4, 14  |  4, 15  |  4, 17  |  4, 18  |  5, 7  |  5, 9  |  5, 11  |  5, 13  |  5, 15  |  5, 18  |  6, 8  |  6, 12  |  6, 14  |  6, 16  |  6, 17  |  7, 8  |  7, 9  |  7, 13  |  7, 14  |  8, 9  |  8, 10  |  8, 12  |  8, 16  |  9, 10  |  9, 11  |  9, 12  |  9, 13  |  9, 14  |  9, 16  |  9, 17  |  9, 18  |  10, 11  |  10, 14  |  10, 15  |  10, 18  |  11, 13  |  11, 14  |  11, 15  |  11, 17  |  11, 18  |  12, 14  |  12, 18  |  13, 14  |  13, 17  |  13, 18  |  15, 16  |  15, 17  |  15, 18  |  16, 18  |  17, 18  |];
