% Generated Graph Coloring Instance
nc = 7;
nv = 18;
ne = 57;

edges = [|  1, 3  |  1, 6  |  1, 8  |  1, 10  |  1, 11  |  1, 12  |  1, 14  |  1, 17  |  2, 3  |  2, 7  |  2, 12  |  2, 14  |  2, 15  |  2, 18  |  3, 6  |  3, 7  |  3, 9  |  3, 10  |  3, 12  |  3, 15  |  3, 17  |  4, 5  |  4, 13  |  4, 14  |  4, 16  |  4, 17  |  4, 18  |  5, 7  |  5, 9  |  5, 10  |  5, 11  |  5, 12  |  5, 18  |  6, 9  |  7, 8  |  7, 9  |  7, 12  |  7, 17  |  8, 12  |  9, 11  |  9, 12  |  9, 13  |  9, 15  |  9, 17  |  10, 11  |  10, 12  |  10, 14  |  10, 15  |  11, 16  |  12, 13  |  13, 14  |  13, 18  |  14, 15  |  14, 18  |  15, 17  |  16, 17  |  17, 18  |];
