% Generated Graph Coloring Instance
nc = 3;
nv = 18;
ne = 56;

edges = [|  1, 4  |  1, 5  |  1, 7  |  1, 8  |  1, 14  |  1, 15  |  1, 16  |  1, 18  |  2, 5  |  2, 6  |  2, 7  |  2, 8  |  2, 11  |  2, 13  |  2, 15  |  3, 5  |  3, 13  |  3, 14  |  4, 5  |  4, 8  |  4, 14  |  4, 16  |  4, 17  |  4, 18  |  5, 7  |  5, 8  |  5, 12  |  5, 16  |  5, 17  |  6, 7  |  6, 13  |  6, 14  |  6, 17  |  7, 9  |  7, 14  |  7, 15  |  7, 17  |  8, 13  |  8, 16  |  8, 18  |  9, 10  |  9, 11  |  9, 13  |  9, 16  |  9, 17  |  10, 12  |  10, 16  |  11, 12  |  11, 13  |  11, 15  |  11, 17  |  12, 14  |  13, 14  |  13, 18  |  14, 16  |  14, 17  |];
