% Generated Graph Coloring Instance
nc = 13;
nv = 20;
ne = 81;

edges = [|  1, 5  |  1, 8  |  1, 9  |  1, 11  |  1, 17  |  1, 20  |  2, 3  |  2, 8  |  2, 9  |  2, 10  |  2, 13  |  2, 14  |  2, 16  |  2, 20  |  3, 5  |  3, 6  |  3, 7  |  3, 8  |  3, 10  |  3, 14  |  3, 19  |  3, 20  |  4, 5  |  4, 7  |  4, 11  |  4, 13  |  4, 14  |  4, 16  |  4, 18  |  4, 20  |  5, 6  |  5, 7  |  5, 10  |  5, 13  |  5, 14  |  5, 15  |  6, 7  |  6, 11  |  6, 12  |  6, 15  |  6, 17  |  6, 18  |  6, 20  |  7, 8  |  7, 9  |  7, 10  |  7, 11  |  7, 13  |  7, 14  |  7, 17  |  7, 19  |  8, 16  |  8, 18  |  8, 19  |  8, 20  |  9, 10  |  9, 11  |  9, 12  |  9, 13  |  9, 15  |  9, 16  |  9, 18  |  9, 19  |  10, 14  |  11, 13  |  11, 14  |  11, 17  |  11, 18  |  12, 14  |  12, 16  |  12, 18  |  12, 20  |  13, 18  |  14, 18  |  14, 19  |  14, 20  |  15, 16  |  15, 19  |  15, 20  |  18, 20  |  19, 20  |];
