% Generated Graph Coloring Instance
nc = 11;
nv = 14;
ne = 66;

edges = [|  1, 2  |  1, 4  |  1, 6  |  1, 9  |  1, 11  |  1, 12  |  1, 14  |  2, 3  |  2, 4  |  2, 5  |  2, 8  |  2, 10  |  2, 11  |  2, 12  |  2, 13  |  2, 14  |  3, 5  |  3, 7  |  3, 9  |  3, 10  |  3, 11  |  3, 12  |  3, 13  |  3, 14  |  4, 5  |  4, 6  |  4, 9  |  4, 10  |  4, 12  |  4, 13  |  5, 6  |  5, 8  |  5, 9  |  5, 10  |  5, 11  |  5, 13  |  5, 14  |  6, 7  |  6, 9  |  6, 10  |  6, 11  |  6, 12  |  6, 13  |  7, 8  |  7, 9  |  7, 11  |  7, 12  |  7, 13  |  7, 14  |  8, 9  |  8, 10  |  8, 11  |  8, 13  |  9, 10  |  9, 11  |  9, 13  |  9, 14  |  10, 11  |  10, 12  |  10, 13  |  10, 14  |  11, 12  |  11, 13  |  12, 13  |  12, 14  |  13, 14  |];
