% Generated Graph Coloring Instance
nc = 7;
nv = 20;
ne = 77;

edges = [|  1, 3  |  1, 5  |  1, 7  |  1, 10  |  1, 16  |  1, 18  |  1, 20  |  2, 3  |  2, 4  |  2, 6  |  2, 7  |  2, 9  |  2, 11  |  2, 13  |  2, 16  |  2, 17  |  2, 18  |  2, 19  |  3, 6  |  3, 10  |  3, 11  |  3, 12  |  3, 13  |  3, 20  |  4, 6  |  4, 10  |  4, 11  |  4, 12  |  4, 15  |  4, 16  |  4, 19  |  5, 6  |  5, 7  |  5, 10  |  5, 12  |  5, 14  |  5, 17  |  5, 18  |  5, 20  |  6, 9  |  6, 16  |  6, 17  |  6, 18  |  7, 12  |  7, 16  |  7, 18  |  7, 19  |  8, 9  |  8, 11  |  8, 15  |  8, 17  |  8, 18  |  8, 20  |  9, 10  |  9, 12  |  9, 15  |  9, 17  |  9, 18  |  10, 16  |  10, 17  |  10, 19  |  10, 20  |  11, 13  |  12, 13  |  12, 19  |  12, 20  |  13, 16  |  13, 18  |  14, 15  |  14, 17  |  14, 19  |  14, 20  |  15, 20  |  16, 17  |  16, 19  |  16, 20  |  18, 19  |];
