% Generated Graph Coloring Instance
nc = 5;
nv = 20;
ne = 82;

edges = [|  1, 2  |  1, 3  |  1, 4  |  1, 7  |  1, 9  |  1, 13  |  1, 14  |  1, 17  |  1, 18  |  1, 20  |  2, 3  |  2, 4  |  2, 8  |  2, 11  |  2, 13  |  2, 14  |  2, 20  |  3, 4  |  3, 5  |  3, 6  |  3, 10  |  3, 11  |  3, 12  |  3, 16  |  3, 19  |  3, 20  |  4, 5  |  4, 8  |  4, 9  |  4, 11  |  4, 13  |  4, 16  |  4, 18  |  4, 19  |  5, 6  |  5, 8  |  5, 9  |  5, 17  |  6, 8  |  6, 10  |  6, 12  |  6, 16  |  6, 19  |  7, 14  |  7, 15  |  7, 16  |  7, 17  |  7, 20  |  8, 13  |  8, 14  |  8, 19  |  8, 20  |  9, 10  |  9, 12  |  9, 14  |  10, 12  |  10, 13  |  10, 17  |  10, 19  |  11, 13  |  11, 15  |  11, 17  |  11, 19  |  12, 13  |  12, 16  |  12, 20  |  13, 15  |  13, 16  |  13, 18  |  13, 19  |  13, 20  |  14, 16  |  14, 19  |  14, 20  |  15, 18  |  15, 19  |  15, 20  |  16, 18  |  16, 19  |  16, 20  |  18, 19  |  18, 20  |];
