% Generated Graph Coloring Instance
nc = 15;
nv = 14;
ne = 54;

edges = [|  1, 3  |  1, 4  |  1, 5  |  1, 7  |  1, 8  |  1, 9  |  1, 10  |  1, 11  |  2, 3  |  2, 7  |  2, 8  |  2, 9  |  2, 10  |  2, 12  |  2, 13  |  3, 5  |  3, 6  |  3, 9  |  3, 10  |  3, 11  |  3, 14  |  4, 5  |  4, 6  |  4, 7  |  4, 9  |  4, 12  |  4, 13  |  5, 7  |  5, 10  |  5, 13  |  5, 14  |  6, 7  |  6, 8  |  6, 9  |  6, 10  |  6, 12  |  6, 13  |  6, 14  |  7, 8  |  7, 9  |  7, 11  |  7, 13  |  8, 9  |  8, 12  |  9, 10  |  9, 11  |  9, 12  |  9, 13  |  9, 14  |  10, 13  |  10, 14  |  11, 13  |  12, 14  |  13, 14  |];
