% Generated Graph Coloring Instance
nc = 7;
nv = 14;
ne = 51;

edges = [|  1, 3  |  1, 5  |  1, 6  |  1, 9  |  1, 10  |  1, 11  |  1, 12  |  1, 13  |  2, 5  |  2, 7  |  2, 11  |  2, 12  |  2, 14  |  3, 5  |  3, 7  |  3, 9  |  3, 12  |  3, 13  |  4, 5  |  4, 8  |  4, 9  |  4, 10  |  4, 11  |  5, 8  |  5, 9  |  5, 10  |  5, 11  |  5, 14  |  6, 7  |  6, 10  |  6, 13  |  6, 14  |  7, 9  |  7, 11  |  7, 12  |  7, 14  |  8, 9  |  8, 11  |  8, 14  |  9, 10  |  9, 11  |  9, 12  |  9, 13  |  9, 14  |  10, 11  |  10, 13  |  11, 12  |  11, 14  |  12, 13  |  12, 14  |  13, 14  |];
