% Generated Graph Coloring Instance
nc = 5;
nv = 20;
ne = 72;

edges = [|  1, 2  |  1, 3  |  1, 4  |  1, 7  |  1, 8  |  1, 12  |  1, 13  |  1, 16  |  1, 17  |  2, 3  |  2, 4  |  2, 5  |  2, 6  |  2, 9  |  2, 10  |  2, 11  |  2, 13  |  2, 17  |  2, 18  |  3, 4  |  3, 8  |  3, 9  |  3, 10  |  3, 12  |  3, 15  |  3, 16  |  3, 18  |  3, 19  |  4, 12  |  5, 6  |  5, 20  |  6, 7  |  6, 8  |  6, 14  |  6, 15  |  6, 16  |  6, 18  |  7, 8  |  7, 9  |  7, 13  |  7, 15  |  7, 17  |  7, 19  |  8, 9  |  8, 10  |  8, 12  |  8, 15  |  8, 17  |  8, 18  |  8, 20  |  9, 12  |  9, 13  |  9, 16  |  9, 20  |  10, 12  |  10, 17  |  10, 18  |  10, 20  |  11, 15  |  11, 18  |  11, 19  |  12, 20  |  13, 14  |  13, 15  |  13, 18  |  13, 19  |  14, 17  |  15, 16  |  15, 17  |  15, 18  |  17, 19  |  18, 20  |];
