% Generated Graph Coloring Instance
nc = 5;
nv = 14;
ne = 48;

edges = [|  1, 2  |  1, 9  |  1, 11  |  1, 12  |  1, 13  |  2, 3  |  2, 5  |  2, 6  |  2, 7  |  2, 9  |  2, 10  |  2, 11  |  2, 12  |  3, 6  |  3, 7  |  3, 8  |  3, 9  |  3, 10  |  3, 12  |  3, 13  |  3, 14  |  4, 5  |  4, 6  |  4, 11  |  5, 7  |  5, 9  |  5, 10  |  5, 11  |  5, 12  |  5, 13  |  6, 8  |  6, 9  |  6, 13  |  6, 14  |  7, 8  |  7, 10  |  7, 12  |  7, 13  |  7, 14  |  8, 9  |  9, 10  |  9, 14  |  10, 12  |  11, 12  |  11, 13  |  11, 14  |  12, 14  |  13, 14  |];
