% Generated Graph Coloring Instance
nc = 15;
nv = 16;
ne = 67;

edges = [|  1, 4  |  1, 5  |  1, 8  |  1, 10  |  1, 14  |  1, 15  |  2, 3  |  2, 4  |  2, 5  |  2, 8  |  2, 9  |  2, 11  |  2, 13  |  2, 14  |  2, 15  |  2, 16  |  3, 5  |  3, 6  |  3, 7  |  3, 8  |  3, 9  |  3, 11  |  3, 12  |  3, 13  |  3, 14  |  3, 15  |  3, 16  |  4, 5  |  4, 6  |  4, 7  |  4, 11  |  4, 12  |  4, 15  |  4, 16  |  5, 6  |  5, 7  |  5, 9  |  5, 12  |  5, 13  |  5, 14  |  5, 15  |  6, 7  |  6, 9  |  6, 16  |  7, 8  |  7, 9  |  7, 10  |  7, 13  |  7, 14  |  8, 10  |  8, 11  |  8, 12  |  8, 14  |  8, 15  |  8, 16  |  9, 10  |  9, 12  |  10, 11  |  10, 13  |  10, 15  |  11, 12  |  11, 13  |  11, 15  |  12, 15  |  13, 15  |  14, 15  |  14, 16  |];
