% Generated Graph Coloring Instance
nc = 9;
nv = 16;
ne = 43;

edges = [|  1, 11  |  1, 13  |  2, 3  |  2, 5  |  2, 16  |  3, 4  |  3, 5  |  3, 6  |  3, 10  |  3, 11  |  3, 14  |  3, 16  |  4, 6  |  4, 15  |  5, 7  |  5, 10  |  5, 11  |  5, 12  |  6, 7  |  6, 8  |  6, 10  |  6, 13  |  7, 9  |  7, 10  |  7, 11  |  7, 14  |  7, 15  |  7, 16  |  8, 12  |  8, 13  |  8, 16  |  9, 11  |  9, 15  |  10, 11  |  10, 13  |  10, 16  |  11, 13  |  11, 14  |  11, 16  |  12, 13  |  12, 15  |  12, 16  |  13, 14  |];
