% Generated Graph Coloring Instance
nc = 11;
nv = 18;
ne = 66;

edges = [|  1, 4  |  1, 5  |  1, 6  |  1, 9  |  1, 16  |  1, 17  |  1, 18  |  2, 3  |  2, 7  |  2, 8  |  2, 9  |  2, 10  |  2, 11  |  2, 13  |  2, 16  |  2, 17  |  3, 5  |  3, 6  |  3, 8  |  3, 16  |  3, 17  |  4, 7  |  4, 8  |  4, 9  |  4, 10  |  4, 11  |  4, 12  |  4, 14  |  4, 17  |  4, 18  |  5, 6  |  5, 7  |  5, 8  |  5, 11  |  5, 13  |  5, 14  |  5, 15  |  5, 18  |  6, 13  |  6, 16  |  6, 17  |  7, 10  |  7, 13  |  7, 15  |  7, 16  |  8, 12  |  8, 16  |  9, 10  |  9, 12  |  9, 16  |  10, 12  |  10, 14  |  10, 16  |  10, 18  |  11, 15  |  11, 16  |  11, 17  |  12, 13  |  12, 16  |  12, 17  |  12, 18  |  13, 14  |  13, 16  |  14, 16  |  14, 18  |  16, 17  |];
