% Generated Graph Coloring Instance
nc = 3;
nv = 20;
ne = 119;

edges = [|  1, 2  |  1, 4  |  1, 7  |  1, 8  |  1, 9  |  1, 10  |  1, 11  |  1, 13  |  1, 14  |  1, 15  |  1, 16  |  1, 17  |  1, 18  |  1, 19  |  2, 3  |  2, 7  |  2, 9  |  2, 11  |  2, 12  |  2, 14  |  2, 15  |  2, 17  |  2, 18  |  2, 19  |  2, 20  |  3, 6  |  3, 7  |  3, 9  |  3, 10  |  3, 12  |  3, 13  |  3, 15  |  3, 16  |  3, 18  |  3, 19  |  3, 20  |  4, 10  |  4, 12  |  4, 13  |  4, 15  |  4, 16  |  4, 18  |  4, 19  |  4, 20  |  5, 7  |  5, 9  |  5, 10  |  5, 11  |  5, 12  |  5, 13  |  5, 16  |  5, 17  |  5, 19  |  5, 20  |  6, 7  |  6, 11  |  6, 12  |  6, 13  |  6, 14  |  6, 15  |  6, 16  |  6, 17  |  6, 20  |  7, 11  |  7, 12  |  7, 13  |  7, 14  |  7, 15  |  7, 16  |  7, 17  |  7, 18  |  7, 19  |  7, 20  |  8, 9  |  8, 11  |  8, 17  |  8, 20  |  9, 10  |  9, 15  |  9, 16  |  9, 19  |  9, 20  |  10, 12  |  10, 14  |  10, 16  |  10, 19  |  10, 20  |  11, 13  |  11, 14  |  11, 15  |  11, 16  |  11, 17  |  11, 18  |  11, 19  |  11, 20  |  12, 13  |  12, 14  |  12, 15  |  12, 18  |  12, 19  |  12, 20  |  13, 17  |  13, 18  |  13, 20  |  14, 15  |  14, 16  |  14, 17  |  14, 18  |  14, 19  |  15, 17  |  15, 18  |  15, 20  |  16, 17  |  16, 18  |  16, 19  |  17, 18  |  17, 19  |  17, 20  |  19, 20  |];
