% Generated Graph Coloring Instance
nc = 15;
nv = 20;
ne = 83;

edges = [|  1, 5  |  1, 6  |  1, 7  |  1, 10  |  1, 12  |  1, 14  |  1, 15  |  1, 16  |  1, 18  |  1, 19  |  1, 20  |  2, 9  |  2, 14  |  2, 15  |  2, 17  |  2, 18  |  2, 19  |  3, 5  |  3, 9  |  3, 11  |  3, 12  |  3, 13  |  3, 17  |  3, 18  |  4, 5  |  4, 6  |  4, 8  |  4, 9  |  4, 10  |  4, 11  |  4, 12  |  4, 14  |  4, 16  |  4, 20  |  5, 6  |  5, 7  |  5, 9  |  5, 10  |  5, 17  |  5, 19  |  6, 7  |  6, 11  |  6, 16  |  6, 17  |  6, 19  |  6, 20  |  7, 8  |  7, 9  |  7, 11  |  7, 12  |  7, 14  |  7, 16  |  7, 18  |  7, 19  |  8, 11  |  8, 12  |  8, 20  |  9, 14  |  9, 19  |  10, 13  |  10, 18  |  10, 20  |  11, 13  |  11, 14  |  11, 15  |  11, 18  |  11, 19  |  12, 15  |  12, 16  |  12, 18  |  12, 19  |  13, 15  |  14, 16  |  14, 18  |  14, 19  |  15, 16  |  15, 17  |  15, 18  |  15, 19  |  15, 20  |  16, 18  |  17, 18  |  19, 20  |];
