% Generated Graph Coloring Instance
nc = 7;
nv = 18;
ne = 59;

edges = [|  1, 3  |  1, 7  |  1, 15  |  1, 17  |  2, 3  |  2, 5  |  2, 11  |  2, 12  |  2, 13  |  2, 15  |  2, 18  |  3, 9  |  3, 10  |  3, 13  |  3, 14  |  3, 18  |  4, 7  |  4, 10  |  4, 11  |  4, 13  |  4, 14  |  4, 15  |  4, 16  |  4, 17  |  5, 6  |  5, 10  |  5, 14  |  5, 17  |  6, 7  |  6, 10  |  6, 11  |  6, 14  |  6, 17  |  7, 14  |  7, 15  |  7, 17  |  8, 9  |  8, 12  |  8, 18  |  9, 15  |  9, 16  |  9, 17  |  9, 18  |  10, 11  |  10, 12  |  10, 13  |  10, 14  |  10, 16  |  10, 18  |  11, 12  |  11, 13  |  11, 14  |  11, 18  |  12, 13  |  12, 14  |  12, 15  |  13, 15  |  14, 15  |  14, 18  |];
