% Generated Graph Coloring Instance
nc = 11;
nv = 20;
ne = 77;

edges = [|  1, 9  |  1, 12  |  1, 16  |  1, 19  |  1, 20  |  2, 3  |  2, 4  |  2, 8  |  2, 9  |  2, 11  |  2, 15  |  2, 20  |  3, 5  |  3, 7  |  3, 8  |  3, 9  |  3, 11  |  3, 15  |  3, 16  |  3, 17  |  3, 19  |  3, 20  |  4, 5  |  4, 7  |  4, 9  |  4, 11  |  4, 12  |  4, 13  |  4, 14  |  4, 19  |  5, 7  |  5, 8  |  5, 10  |  5, 12  |  5, 16  |  5, 17  |  5, 18  |  5, 19  |  5, 20  |  6, 8  |  6, 13  |  6, 14  |  6, 15  |  6, 16  |  6, 20  |  7, 13  |  7, 14  |  7, 15  |  7, 17  |  7, 18  |  7, 19  |  7, 20  |  8, 10  |  8, 13  |  8, 16  |  8, 18  |  8, 19  |  10, 12  |  10, 13  |  10, 19  |  10, 20  |  11, 13  |  12, 13  |  12, 14  |  12, 15  |  12, 16  |  12, 19  |  13, 19  |  13, 20  |  14, 15  |  14, 16  |  14, 18  |  14, 19  |  14, 20  |  15, 19  |  16, 17  |  17, 18  |];
