% Generated Graph Coloring Instance
nc = 3;
nv = 16;
ne = 45;

edges = [|  1, 2  |  1, 3  |  1, 4  |  1, 5  |  1, 11  |  1, 15  |  2, 10  |  2, 15  |  2, 16  |  3, 4  |  3, 5  |  3, 7  |  3, 10  |  3, 11  |  3, 13  |  3, 14  |  3, 16  |  4, 9  |  4, 10  |  4, 14  |  4, 16  |  5, 12  |  5, 13  |  5, 15  |  6, 9  |  6, 12  |  6, 14  |  6, 15  |  6, 16  |  7, 8  |  7, 9  |  7, 10  |  7, 12  |  8, 10  |  8, 11  |  8, 14  |  9, 12  |  9, 15  |  10, 12  |  11, 14  |  11, 15  |  12, 16  |  13, 14  |  14, 16  |  15, 16  |];
