% Generated Graph Coloring Instance
nc = 15;
nv = 16;
ne = 72;

edges = [|  1, 2  |  1, 3  |  1, 6  |  1, 7  |  1, 10  |  1, 13  |  2, 3  |  2, 5  |  2, 6  |  2, 9  |  2, 10  |  2, 11  |  2, 13  |  2, 15  |  3, 4  |  3, 5  |  3, 9  |  3, 10  |  3, 11  |  3, 13  |  3, 14  |  3, 15  |  3, 16  |  4, 6  |  4, 7  |  4, 8  |  4, 9  |  4, 10  |  4, 11  |  4, 12  |  4, 13  |  4, 14  |  4, 15  |  4, 16  |  5, 6  |  5, 7  |  5, 8  |  5, 10  |  5, 11  |  5, 12  |  5, 14  |  5, 15  |  6, 9  |  6, 10  |  6, 12  |  6, 13  |  6, 14  |  6, 15  |  6, 16  |  7, 8  |  7, 9  |  7, 11  |  7, 13  |  7, 14  |  7, 15  |  8, 11  |  8, 13  |  8, 16  |  9, 10  |  9, 12  |  9, 13  |  9, 14  |  9, 15  |  10, 13  |  10, 15  |  10, 16  |  11, 13  |  11, 15  |  12, 15  |  13, 15  |  13, 16  |  14, 16  |];
