% Generated Graph Coloring Instance
nc = 7;
nv = 20;
ne = 73;

edges = [|  1, 2  |  1, 3  |  1, 14  |  1, 15  |  1, 17  |  1, 20  |  2, 3  |  2, 4  |  2, 5  |  2, 8  |  2, 10  |  2, 13  |  2, 15  |  2, 20  |  3, 6  |  3, 7  |  3, 11  |  3, 14  |  3, 19  |  4, 9  |  4, 10  |  4, 12  |  4, 13  |  4, 15  |  4, 16  |  4, 18  |  4, 19  |  4, 20  |  5, 6  |  5, 7  |  5, 8  |  5, 14  |  5, 15  |  5, 17  |  6, 9  |  6, 10  |  6, 11  |  6, 12  |  6, 17  |  7, 12  |  8, 11  |  8, 12  |  8, 13  |  8, 14  |  8, 15  |  8, 16  |  8, 19  |  9, 10  |  9, 11  |  9, 13  |  9, 15  |  9, 20  |  10, 13  |  10, 15  |  10, 17  |  10, 18  |  10, 20  |  11, 13  |  11, 14  |  11, 17  |  11, 19  |  11, 20  |  12, 14  |  12, 16  |  12, 19  |  13, 14  |  14, 19  |  14, 20  |  15, 17  |  16, 17  |  17, 18  |  17, 20  |  18, 19  |];
