% Generated Graph Coloring Instance
nc = 3;
nv = 16;
ne = 45;

edges = [|  1, 3  |  1, 4  |  1, 5  |  1, 6  |  1, 11  |  2, 4  |  2, 5  |  2, 6  |  2, 7  |  2, 8  |  2, 9  |  2, 16  |  3, 4  |  3, 6  |  3, 8  |  3, 9  |  3, 10  |  4, 10  |  4, 16  |  5, 6  |  5, 11  |  5, 12  |  6, 7  |  6, 12  |  6, 14  |  7, 8  |  7, 9  |  7, 11  |  7, 12  |  8, 10  |  8, 11  |  8, 15  |  8, 16  |  9, 11  |  9, 12  |  9, 14  |  9, 15  |  10, 15  |  10, 16  |  11, 13  |  11, 15  |  12, 13  |  12, 14  |  12, 16  |  14, 15  |];
