% Generated Graph Coloring Instance
nc = 13;
nv = 16;
ne = 52;

edges = [|  1, 9  |  1, 13  |  1, 15  |  1, 16  |  2, 3  |  2, 4  |  2, 11  |  2, 13  |  2, 16  |  3, 5  |  3, 7  |  3, 8  |  3, 10  |  3, 13  |  4, 5  |  4, 6  |  4, 9  |  4, 10  |  4, 11  |  4, 15  |  5, 8  |  5, 9  |  5, 10  |  5, 11  |  5, 14  |  5, 15  |  6, 8  |  6, 13  |  6, 14  |  7, 12  |  8, 9  |  8, 10  |  8, 11  |  8, 12  |  8, 13  |  8, 16  |  9, 12  |  9, 15  |  10, 12  |  10, 13  |  10, 14  |  10, 15  |  11, 12  |  11, 14  |  11, 15  |  12, 14  |  12, 16  |  13, 14  |  13, 16  |  14, 15  |  14, 16  |  15, 16  |];
