% Generated Graph Coloring Instance
nc = 13;
nv = 16;
ne = 43;

edges = [|  1, 4  |  1, 7  |  1, 8  |  1, 14  |  2, 3  |  2, 4  |  2, 5  |  2, 8  |  2, 13  |  3, 8  |  3, 9  |  3, 10  |  3, 11  |  3, 13  |  4, 9  |  4, 11  |  4, 12  |  4, 14  |  5, 7  |  5, 16  |  6, 9  |  6, 10  |  6, 11  |  6, 12  |  6, 15  |  6, 16  |  7, 8  |  7, 13  |  8, 9  |  8, 10  |  8, 11  |  8, 12  |  9, 11  |  9, 15  |  9, 16  |  10, 12  |  10, 16  |  11, 15  |  12, 13  |  12, 14  |  12, 15  |  14, 15  |  15, 16  |];
