% Generated Graph Coloring Instance
nc = 13;
nv = 16;
ne = 51;

edges = [|  1, 2  |  1, 4  |  1, 6  |  1, 9  |  1, 16  |  2, 4  |  2, 5  |  2, 6  |  2, 11  |  2, 12  |  2, 13  |  3, 5  |  3, 7  |  3, 8  |  3, 9  |  3, 13  |  3, 14  |  3, 15  |  4, 7  |  4, 8  |  4, 10  |  4, 11  |  4, 15  |  4, 16  |  5, 8  |  5, 12  |  5, 14  |  5, 15  |  5, 16  |  6, 8  |  6, 10  |  6, 16  |  7, 8  |  7, 9  |  7, 10  |  7, 12  |  7, 14  |  8, 10  |  8, 14  |  8, 16  |  9, 12  |  9, 15  |  10, 13  |  10, 14  |  11, 12  |  11, 13  |  11, 14  |  12, 13  |  12, 16  |  14, 15  |  15, 16  |];
