% Generated Graph Coloring Instance
nc = 11;
nv = 20;
ne = 71;

edges = [|  1, 4  |  1, 6  |  1, 7  |  1, 14  |  1, 17  |  1, 20  |  2, 5  |  2, 8  |  2, 11  |  2, 15  |  3, 6  |  3, 7  |  3, 10  |  3, 14  |  3, 20  |  4, 6  |  4, 7  |  4, 8  |  4, 11  |  4, 12  |  4, 14  |  4, 16  |  4, 17  |  4, 18  |  5, 7  |  5, 8  |  5, 12  |  5, 13  |  5, 14  |  5, 18  |  5, 20  |  6, 13  |  6, 15  |  6, 19  |  7, 8  |  7, 12  |  7, 15  |  7, 16  |  7, 17  |  8, 10  |  8, 16  |  8, 19  |  8, 20  |  9, 13  |  9, 14  |  9, 17  |  9, 19  |  10, 11  |  10, 13  |  10, 16  |  10, 17  |  10, 18  |  10, 20  |  11, 13  |  11, 14  |  11, 20  |  12, 14  |  12, 16  |  12, 19  |  13, 14  |  13, 16  |  13, 18  |  13, 20  |  14, 15  |  14, 18  |  14, 20  |  15, 16  |  15, 17  |  15, 18  |  17, 19  |  19, 20  |];
