% Generated Graph Coloring Instance
nc = 9;
nv = 16;
ne = 50;

edges = [|  1, 4  |  1, 5  |  1, 7  |  1, 11  |  1, 12  |  1, 13  |  1, 14  |  1, 16  |  2, 3  |  2, 4  |  2, 5  |  2, 8  |  2, 10  |  2, 11  |  2, 12  |  2, 14  |  2, 16  |  3, 7  |  3, 10  |  3, 12  |  3, 14  |  3, 15  |  4, 7  |  4, 8  |  4, 9  |  4, 10  |  4, 14  |  4, 16  |  5, 11  |  5, 14  |  6, 9  |  6, 11  |  6, 12  |  6, 15  |  7, 9  |  7, 10  |  7, 13  |  7, 15  |  8, 10  |  8, 11  |  8, 13  |  9, 11  |  10, 11  |  11, 13  |  11, 14  |  11, 15  |  12, 13  |  12, 16  |  13, 16  |  15, 16  |];
