% Generated Graph Coloring Instance
nc = 11;
nv = 20;
ne = 85;

edges = [|  1, 2  |  1, 5  |  1, 8  |  1, 11  |  1, 12  |  1, 13  |  1, 18  |  1, 19  |  2, 9  |  2, 11  |  2, 12  |  2, 13  |  2, 15  |  2, 18  |  2, 19  |  2, 20  |  3, 6  |  3, 7  |  3, 8  |  3, 13  |  3, 14  |  3, 16  |  3, 17  |  3, 18  |  4, 5  |  4, 9  |  4, 11  |  4, 13  |  4, 14  |  4, 20  |  5, 6  |  5, 7  |  5, 9  |  5, 13  |  5, 17  |  6, 7  |  6, 10  |  6, 16  |  6, 17  |  6, 18  |  7, 9  |  7, 10  |  7, 12  |  7, 17  |  7, 19  |  7, 20  |  8, 9  |  8, 10  |  8, 12  |  8, 13  |  8, 15  |  8, 16  |  8, 17  |  8, 19  |  9, 10  |  9, 11  |  9, 12  |  9, 15  |  9, 17  |  9, 19  |  10, 11  |  10, 14  |  10, 18  |  10, 20  |  11, 12  |  11, 13  |  11, 16  |  11, 19  |  11, 20  |  12, 14  |  12, 16  |  12, 17  |  12, 18  |  12, 19  |  12, 20  |  13, 17  |  13, 18  |  13, 19  |  14, 16  |  14, 19  |  15, 16  |  15, 18  |  16, 17  |  18, 19  |  18, 20  |];
