% Generated Graph Coloring Instance
nc = 15;
nv = 20;
ne = 42;

edges = [|  1, 9  |  1, 10  |  1, 12  |  1, 14  |  1, 15  |  1, 16  |  1, 17  |  1, 18  |  1, 20  |  2, 7  |  2, 12  |  2, 15  |  2, 17  |  2, 18  |  4, 8  |  4, 10  |  4, 12  |  5, 6  |  5, 10  |  5, 11  |  5, 14  |  5, 15  |  5, 17  |  6, 8  |  6, 11  |  6, 20  |  7, 14  |  7, 16  |  7, 20  |  8, 10  |  8, 12  |  8, 15  |  8, 19  |  9, 15  |  10, 11  |  10, 12  |  13, 14  |  13, 19  |  16, 17  |  16, 18  |  16, 20  |  18, 19  |];
