% Generated Graph Coloring Instance
nc = 9;
nv = 18;
ne = 67;

edges = [|  1, 3  |  1, 5  |  1, 9  |  1, 11  |  1, 14  |  1, 15  |  1, 16  |  1, 18  |  2, 3  |  2, 5  |  2, 9  |  2, 11  |  2, 13  |  3, 8  |  3, 12  |  3, 14  |  3, 17  |  4, 5  |  4, 7  |  4, 8  |  4, 10  |  4, 15  |  4, 17  |  4, 18  |  5, 7  |  5, 8  |  5, 10  |  5, 12  |  5, 14  |  5, 15  |  5, 16  |  5, 17  |  6, 7  |  6, 13  |  6, 16  |  6, 17  |  6, 18  |  7, 8  |  7, 11  |  7, 12  |  7, 16  |  8, 10  |  8, 11  |  8, 12  |  8, 13  |  8, 18  |  9, 10  |  9, 11  |  9, 13  |  9, 15  |  9, 16  |  10, 11  |  10, 12  |  10, 16  |  10, 18  |  11, 15  |  11, 18  |  12, 13  |  12, 17  |  13, 14  |  13, 15  |  13, 16  |  14, 16  |  14, 17  |  14, 18  |  16, 17  |  16, 18  |];
