% Generated Graph Coloring Instance
nc = 11;
nv = 18;
ne = 88;

edges = [|  1, 2  |  1, 3  |  1, 4  |  1, 5  |  1, 6  |  1, 8  |  1, 10  |  1, 12  |  1, 13  |  1, 14  |  1, 15  |  1, 17  |  2, 4  |  2, 5  |  2, 6  |  2, 7  |  2, 8  |  2, 9  |  2, 11  |  2, 12  |  2, 13  |  2, 16  |  2, 17  |  2, 18  |  3, 7  |  3, 8  |  3, 10  |  3, 11  |  3, 12  |  3, 14  |  3, 16  |  3, 18  |  4, 6  |  4, 7  |  4, 9  |  4, 12  |  4, 13  |  4, 14  |  4, 16  |  4, 18  |  5, 6  |  5, 10  |  5, 12  |  5, 13  |  5, 15  |  5, 16  |  5, 18  |  6, 8  |  6, 9  |  6, 10  |  6, 13  |  6, 14  |  6, 15  |  7, 9  |  7, 11  |  7, 12  |  7, 13  |  7, 16  |  7, 17  |  8, 9  |  8, 11  |  8, 14  |  8, 15  |  8, 17  |  9, 10  |  9, 11  |  9, 12  |  9, 13  |  9, 16  |  9, 18  |  10, 13  |  10, 14  |  10, 15  |  10, 16  |  10, 17  |  10, 18  |  11, 13  |  11, 14  |  11, 15  |  12, 14  |  12, 17  |  12, 18  |  13, 14  |  13, 15  |  13, 18  |  14, 17  |  15, 17  |  16, 18  |];
