% Generated Graph Coloring Instance
nc = 3;
nv = 16;
ne = 66;

edges = [|  1, 3  |  1, 4  |  1, 5  |  1, 7  |  1, 8  |  1, 10  |  1, 11  |  1, 14  |  1, 15  |  2, 3  |  2, 4  |  2, 6  |  2, 8  |  2, 10  |  2, 11  |  2, 12  |  3, 4  |  3, 6  |  3, 8  |  3, 9  |  3, 10  |  3, 11  |  3, 13  |  3, 14  |  3, 15  |  3, 16  |  4, 5  |  4, 6  |  4, 7  |  4, 8  |  4, 9  |  4, 10  |  4, 13  |  4, 14  |  4, 15  |  4, 16  |  5, 8  |  5, 9  |  5, 11  |  6, 7  |  6, 9  |  6, 10  |  6, 12  |  6, 15  |  6, 16  |  7, 8  |  7, 9  |  7, 10  |  7, 12  |  7, 13  |  7, 14  |  7, 15  |  7, 16  |  8, 9  |  8, 11  |  8, 13  |  8, 15  |  9, 10  |  9, 11  |  9, 12  |  10, 15  |  11, 13  |  11, 15  |  11, 16  |  12, 13  |  12, 16  |];
