% Generated Graph Coloring Instance
nc = 15;
nv = 18;
ne = 96;

edges = [|  1, 2  |  1, 3  |  1, 4  |  1, 6  |  1, 7  |  1, 9  |  1, 11  |  1, 14  |  1, 16  |  1, 18  |  2, 3  |  2, 4  |  2, 5  |  2, 6  |  2, 7  |  2, 10  |  2, 11  |  2, 12  |  2, 13  |  2, 15  |  2, 17  |  2, 18  |  3, 4  |  3, 6  |  3, 7  |  3, 10  |  3, 11  |  3, 13  |  3, 14  |  3, 16  |  3, 17  |  3, 18  |  4, 6  |  4, 8  |  4, 9  |  4, 11  |  4, 12  |  4, 13  |  4, 14  |  4, 16  |  4, 17  |  4, 18  |  5, 6  |  5, 7  |  5, 13  |  5, 15  |  5, 16  |  5, 17  |  5, 18  |  6, 7  |  6, 8  |  6, 9  |  6, 10  |  6, 11  |  6, 13  |  6, 14  |  6, 15  |  6, 17  |  7, 8  |  7, 9  |  7, 10  |  7, 11  |  7, 12  |  7, 13  |  7, 14  |  7, 15  |  7, 17  |  8, 9  |  8, 11  |  8, 12  |  8, 15  |  8, 18  |  9, 10  |  9, 11  |  9, 12  |  9, 13  |  9, 16  |  9, 17  |  10, 11  |  10, 13  |  10, 15  |  10, 18  |  11, 12  |  11, 14  |  11, 15  |  11, 17  |  12, 15  |  12, 17  |  13, 17  |  13, 18  |  14, 15  |  14, 17  |  15, 16  |  15, 18  |  16, 17  |  16, 18  |];
