% Generated Graph Coloring Instance
nc = 3;
nv = 20;
ne = 72;

edges = [|  1, 4  |  1, 8  |  1, 9  |  1, 11  |  1, 12  |  1, 15  |  1, 16  |  2, 5  |  2, 12  |  2, 13  |  2, 15  |  2, 19  |  3, 6  |  3, 7  |  3, 12  |  3, 14  |  3, 15  |  3, 19  |  3, 20  |  4, 7  |  4, 10  |  4, 13  |  4, 15  |  4, 16  |  5, 7  |  5, 8  |  5, 11  |  5, 14  |  6, 7  |  6, 9  |  6, 11  |  6, 12  |  6, 13  |  6, 14  |  6, 15  |  6, 18  |  7, 8  |  7, 9  |  7, 12  |  7, 13  |  7, 14  |  7, 19  |  7, 20  |  8, 9  |  8, 10  |  8, 11  |  8, 12  |  8, 15  |  8, 16  |  8, 17  |  9, 20  |  10, 11  |  10, 12  |  10, 13  |  10, 16  |  11, 13  |  11, 16  |  11, 19  |  11, 20  |  12, 14  |  12, 18  |  13, 14  |  13, 18  |  13, 19  |  13, 20  |  14, 19  |  14, 20  |  16, 18  |  16, 19  |  17, 20  |  18, 19  |  18, 20  |];
