% Generated Graph Coloring Instance
nc = 3;
nv = 18;
ne = 98;

edges = [|  1, 3  |  1, 4  |  1, 5  |  1, 8  |  1, 11  |  1, 13  |  1, 14  |  1, 15  |  1, 16  |  1, 17  |  1, 18  |  2, 3  |  2, 6  |  2, 8  |  2, 9  |  2, 10  |  2, 11  |  2, 12  |  2, 14  |  3, 5  |  3, 6  |  3, 7  |  3, 8  |  3, 9  |  3, 10  |  3, 12  |  3, 13  |  3, 14  |  3, 15  |  3, 17  |  3, 18  |  4, 5  |  4, 8  |  4, 10  |  4, 11  |  4, 12  |  4, 13  |  4, 14  |  4, 15  |  4, 17  |  4, 18  |  5, 6  |  5, 7  |  5, 8  |  5, 11  |  5, 12  |  5, 13  |  6, 7  |  6, 10  |  6, 11  |  6, 13  |  6, 14  |  6, 17  |  7, 9  |  7, 11  |  7, 12  |  7, 13  |  7, 14  |  7, 15  |  8, 9  |  8, 10  |  8, 11  |  8, 12  |  8, 13  |  8, 14  |  8, 17  |  8, 18  |  9, 10  |  9, 13  |  9, 14  |  9, 16  |  9, 17  |  10, 12  |  10, 14  |  10, 15  |  10, 16  |  10, 17  |  10, 18  |  11, 12  |  11, 13  |  11, 14  |  11, 16  |  11, 17  |  11, 18  |  12, 13  |  12, 14  |  12, 15  |  12, 18  |  13, 15  |  13, 18  |  14, 16  |  14, 17  |  15, 16  |  15, 17  |  15, 18  |  16, 17  |  16, 18  |  17, 18  |];
