% Generated Graph Coloring Instance
nc = 5;
nv = 20;
ne = 74;

edges = [|  1, 2  |  1, 3  |  1, 8  |  1, 11  |  1, 14  |  1, 17  |  2, 3  |  2, 6  |  2, 7  |  2, 8  |  2, 10  |  2, 14  |  3, 4  |  3, 7  |  3, 9  |  3, 11  |  3, 13  |  3, 14  |  3, 15  |  3, 18  |  4, 5  |  4, 10  |  4, 13  |  4, 15  |  4, 16  |  4, 17  |  4, 18  |  4, 19  |  5, 6  |  5, 9  |  5, 10  |  5, 13  |  5, 14  |  5, 16  |  5, 18  |  6, 9  |  6, 16  |  7, 10  |  7, 12  |  7, 13  |  7, 14  |  7, 16  |  7, 17  |  7, 18  |  8, 9  |  8, 18  |  8, 19  |  9, 11  |  9, 13  |  10, 12  |  10, 13  |  10, 14  |  10, 15  |  10, 16  |  10, 17  |  10, 20  |  11, 19  |  12, 14  |  12, 15  |  12, 19  |  12, 20  |  13, 14  |  13, 19  |  13, 20  |  14, 15  |  14, 19  |  14, 20  |  15, 20  |  16, 19  |  16, 20  |  17, 19  |  18, 19  |  18, 20  |  19, 20  |];
