% Generated Graph Coloring Instance
nc = 3;
nv = 20;
ne = 75;

edges = [|  1, 2  |  1, 3  |  1, 5  |  1, 7  |  1, 8  |  1, 10  |  1, 13  |  1, 15  |  1, 17  |  2, 4  |  2, 10  |  2, 14  |  3, 6  |  3, 8  |  3, 9  |  3, 10  |  3, 13  |  3, 19  |  4, 5  |  4, 7  |  4, 13  |  4, 14  |  4, 16  |  4, 18  |  4, 20  |  5, 6  |  5, 8  |  5, 10  |  5, 11  |  5, 13  |  5, 15  |  5, 16  |  5, 19  |  6, 7  |  6, 8  |  6, 9  |  6, 10  |  6, 12  |  6, 16  |  7, 12  |  7, 14  |  7, 15  |  8, 14  |  9, 11  |  9, 13  |  9, 14  |  9, 15  |  9, 19  |  9, 20  |  10, 11  |  10, 12  |  10, 16  |  10, 18  |  10, 19  |  11, 12  |  11, 14  |  11, 16  |  11, 17  |  11, 18  |  11, 19  |  11, 20  |  12, 13  |  12, 18  |  12, 19  |  12, 20  |  13, 16  |  13, 17  |  13, 18  |  14, 17  |  15, 16  |  15, 19  |  16, 18  |  16, 20  |  17, 19  |  17, 20  |];
