% Generated Graph Coloring Instance
nc = 13;
nv = 16;
ne = 62;

edges = [|  1, 3  |  1, 6  |  1, 9  |  1, 10  |  1, 11  |  1, 13  |  1, 15  |  1, 16  |  2, 3  |  2, 4  |  2, 5  |  2, 7  |  2, 10  |  2, 12  |  2, 13  |  2, 14  |  2, 15  |  3, 4  |  3, 6  |  3, 10  |  3, 11  |  3, 12  |  3, 15  |  3, 16  |  4, 6  |  4, 8  |  4, 9  |  4, 10  |  4, 11  |  4, 12  |  4, 14  |  4, 15  |  5, 11  |  5, 12  |  5, 16  |  6, 7  |  6, 9  |  6, 10  |  6, 13  |  6, 14  |  6, 15  |  7, 8  |  7, 10  |  7, 15  |  7, 16  |  8, 11  |  8, 12  |  8, 14  |  8, 15  |  8, 16  |  9, 11  |  9, 14  |  9, 15  |  9, 16  |  10, 12  |  10, 13  |  10, 15  |  10, 16  |  11, 12  |  11, 14  |  11, 16  |  13, 14  |];
