% Generated Graph Coloring Instance
nc = 11;
nv = 14;
ne = 53;

edges = [|  1, 3  |  1, 4  |  1, 5  |  1, 6  |  1, 8  |  1, 11  |  1, 12  |  1, 13  |  2, 5  |  2, 6  |  2, 7  |  2, 8  |  2, 10  |  2, 11  |  2, 12  |  3, 4  |  3, 6  |  3, 7  |  3, 9  |  3, 11  |  3, 12  |  4, 5  |  4, 6  |  4, 8  |  4, 10  |  4, 11  |  4, 12  |  5, 7  |  5, 9  |  5, 10  |  5, 13  |  6, 7  |  6, 10  |  6, 14  |  7, 8  |  7, 9  |  7, 10  |  7, 11  |  7, 12  |  7, 13  |  8, 9  |  8, 10  |  8, 11  |  8, 13  |  8, 14  |  9, 10  |  9, 14  |  10, 11  |  10, 12  |  10, 13  |  11, 14  |  12, 14  |  13, 14  |];
