% Generated Graph Coloring Instance
nc = 15;
nv = 20;
ne = 77;

edges = [|  1, 2  |  1, 3  |  1, 4  |  1, 5  |  1, 7  |  1, 9  |  1, 10  |  1, 11  |  1, 13  |  1, 15  |  2, 5  |  2, 6  |  2, 14  |  2, 15  |  2, 19  |  3, 6  |  3, 7  |  3, 8  |  3, 9  |  3, 10  |  3, 14  |  3, 18  |  4, 7  |  4, 8  |  4, 9  |  4, 17  |  5, 6  |  5, 9  |  5, 12  |  5, 15  |  5, 16  |  5, 18  |  5, 20  |  6, 11  |  6, 14  |  6, 15  |  6, 18  |  7, 8  |  7, 9  |  7, 12  |  7, 15  |  7, 17  |  7, 18  |  7, 19  |  7, 20  |  8, 9  |  8, 10  |  8, 12  |  8, 13  |  8, 16  |  8, 20  |  9, 10  |  9, 11  |  9, 20  |  10, 15  |  10, 16  |  10, 17  |  10, 18  |  10, 19  |  11, 12  |  11, 13  |  11, 14  |  11, 17  |  11, 20  |  12, 13  |  12, 18  |  13, 16  |  13, 19  |  13, 20  |  14, 15  |  14, 18  |  15, 17  |  16, 18  |  16, 19  |  16, 20  |  17, 19  |  17, 20  |];
