% Generated Graph Coloring Instance
nc = 9;
nv = 16;
ne = 43;

edges = [|  1, 7  |  1, 9  |  1, 10  |  1, 11  |  1, 12  |  2, 4  |  2, 6  |  2, 8  |  2, 9  |  2, 10  |  2, 12  |  2, 14  |  2, 15  |  2, 16  |  3, 4  |  3, 10  |  3, 12  |  4, 5  |  4, 8  |  4, 10  |  4, 14  |  5, 11  |  5, 16  |  6, 10  |  6, 11  |  6, 13  |  6, 15  |  7, 10  |  7, 11  |  7, 13  |  7, 14  |  8, 9  |  8, 10  |  8, 12  |  8, 15  |  8, 16  |  10, 13  |  10, 15  |  10, 16  |  11, 13  |  11, 14  |  12, 13  |  12, 16  |];
