% Generated Graph Coloring Instance
nc = 9;
nv = 18;
ne = 64;

edges = [|  1, 8  |  1, 9  |  1, 10  |  1, 14  |  1, 15  |  1, 16  |  2, 5  |  2, 7  |  2, 10  |  2, 11  |  2, 17  |  2, 18  |  3, 4  |  3, 8  |  3, 9  |  3, 10  |  3, 12  |  3, 13  |  3, 15  |  3, 17  |  4, 7  |  4, 8  |  4, 9  |  4, 11  |  4, 14  |  4, 17  |  4, 18  |  5, 7  |  5, 8  |  5, 9  |  5, 10  |  5, 18  |  6, 7  |  6, 11  |  6, 13  |  6, 15  |  6, 18  |  7, 8  |  7, 11  |  7, 12  |  7, 13  |  7, 17  |  8, 14  |  8, 18  |  9, 10  |  9, 15  |  9, 17  |  10, 11  |  10, 12  |  10, 18  |  11, 15  |  11, 16  |  11, 18  |  12, 13  |  12, 15  |  12, 16  |  12, 18  |  13, 14  |  13, 15  |  13, 18  |  14, 17  |  15, 16  |  15, 18  |  17, 18  |];
