% Generated Graph Coloring Instance
nc = 3;
nv = 18;
ne = 89;

edges = [|  1, 2  |  1, 3  |  1, 4  |  1, 5  |  1, 6  |  1, 9  |  1, 11  |  1, 13  |  1, 14  |  1, 15  |  2, 5  |  2, 7  |  2, 12  |  2, 15  |  2, 17  |  3, 4  |  3, 5  |  3, 8  |  3, 9  |  3, 10  |  3, 11  |  3, 12  |  3, 13  |  3, 17  |  4, 5  |  4, 6  |  4, 7  |  4, 9  |  4, 10  |  4, 13  |  4, 15  |  4, 18  |  5, 7  |  5, 9  |  5, 10  |  5, 12  |  5, 14  |  5, 15  |  5, 16  |  5, 18  |  6, 7  |  6, 8  |  6, 9  |  6, 12  |  6, 14  |  6, 15  |  6, 16  |  7, 9  |  7, 10  |  7, 11  |  7, 12  |  7, 13  |  7, 14  |  7, 15  |  7, 16  |  8, 9  |  8, 10  |  8, 11  |  8, 12  |  8, 13  |  8, 15  |  8, 16  |  8, 18  |  9, 11  |  9, 14  |  9, 15  |  9, 17  |  10, 13  |  10, 14  |  10, 16  |  10, 17  |  10, 18  |  11, 12  |  11, 13  |  11, 15  |  11, 17  |  12, 13  |  12, 14  |  12, 15  |  12, 16  |  12, 18  |  13, 15  |  14, 15  |  15, 16  |  15, 17  |  15, 18  |  16, 17  |  16, 18  |  17, 18  |];
