% Generated Graph Coloring Instance
nc = 5;
nv = 20;
ne = 79;

edges = [|  1, 2  |  1, 5  |  1, 7  |  1, 8  |  1, 10  |  1, 12  |  1, 15  |  1, 16  |  1, 17  |  1, 19  |  1, 20  |  2, 11  |  2, 19  |  2, 20  |  3, 7  |  3, 11  |  3, 12  |  3, 19  |  4, 8  |  4, 10  |  4, 11  |  4, 12  |  4, 14  |  4, 15  |  4, 18  |  4, 20  |  5, 10  |  5, 11  |  5, 12  |  5, 13  |  5, 19  |  6, 7  |  6, 8  |  6, 9  |  6, 10  |  6, 11  |  6, 12  |  6, 14  |  6, 16  |  6, 18  |  6, 20  |  7, 10  |  7, 11  |  7, 12  |  7, 16  |  7, 18  |  7, 19  |  8, 9  |  8, 10  |  8, 13  |  8, 14  |  8, 15  |  8, 16  |  9, 12  |  9, 13  |  9, 19  |  9, 20  |  10, 11  |  10, 12  |  10, 14  |  10, 15  |  11, 13  |  11, 14  |  11, 17  |  11, 19  |  12, 16  |  12, 17  |  13, 15  |  13, 18  |  13, 20  |  14, 17  |  15, 16  |  15, 17  |  15, 19  |  15, 20  |  16, 19  |  16, 20  |  17, 18  |  18, 19  |];
