% Generated Graph Coloring Instance
nc = 3;
nv = 14;
ne = 59;

edges = [|  1, 2  |  1, 5  |  1, 6  |  1, 8  |  1, 9  |  1, 10  |  1, 11  |  1, 12  |  1, 13  |  1, 14  |  2, 3  |  2, 5  |  2, 6  |  2, 9  |  2, 10  |  2, 11  |  2, 12  |  2, 13  |  2, 14  |  3, 4  |  3, 6  |  3, 7  |  3, 8  |  3, 9  |  3, 13  |  3, 14  |  4, 6  |  4, 7  |  4, 8  |  4, 11  |  4, 13  |  4, 14  |  5, 6  |  5, 7  |  5, 8  |  5, 10  |  5, 11  |  5, 12  |  5, 13  |  6, 7  |  6, 8  |  6, 12  |  7, 8  |  7, 9  |  7, 10  |  7, 11  |  7, 13  |  7, 14  |  8, 9  |  8, 10  |  8, 12  |  8, 14  |  9, 14  |  10, 11  |  10, 12  |  10, 14  |  12, 13  |  12, 14  |  13, 14  |];
