% Generated Graph Coloring Instance
nc = 7;
nv = 18;
ne = 61;

edges = [|  1, 2  |  1, 6  |  1, 10  |  1, 11  |  1, 12  |  1, 13  |  1, 14  |  1, 17  |  1, 18  |  2, 3  |  2, 5  |  2, 7  |  2, 8  |  2, 11  |  2, 16  |  3, 7  |  3, 11  |  3, 13  |  3, 15  |  4, 7  |  4, 8  |  4, 9  |  4, 10  |  4, 13  |  4, 15  |  4, 16  |  4, 18  |  5, 6  |  5, 10  |  5, 13  |  5, 15  |  5, 16  |  6, 10  |  6, 12  |  6, 13  |  6, 17  |  7, 8  |  7, 17  |  7, 18  |  8, 9  |  8, 11  |  8, 13  |  9, 14  |  9, 16  |  9, 18  |  10, 12  |  10, 13  |  10, 14  |  10, 15  |  10, 16  |  10, 17  |  10, 18  |  12, 13  |  12, 14  |  12, 15  |  12, 16  |  13, 14  |  14, 15  |  14, 18  |  15, 17  |  17, 18  |];
