% Generated Graph Coloring Instance
nc = 5;
nv = 18;
ne = 52;

edges = [|  1, 4  |  1, 5  |  1, 6  |  1, 7  |  1, 9  |  1, 14  |  1, 17  |  1, 18  |  2, 10  |  2, 12  |  2, 16  |  3, 4  |  3, 5  |  3, 7  |  3, 11  |  3, 18  |  4, 5  |  4, 14  |  4, 16  |  4, 17  |  5, 8  |  5, 11  |  5, 13  |  5, 16  |  6, 8  |  6, 11  |  6, 12  |  6, 13  |  6, 14  |  6, 16  |  6, 17  |  7, 9  |  7, 16  |  7, 17  |  7, 18  |  8, 10  |  8, 16  |  8, 18  |  9, 13  |  9, 14  |  9, 16  |  10, 12  |  10, 14  |  11, 14  |  11, 15  |  11, 16  |  11, 17  |  12, 13  |  12, 18  |  13, 14  |  16, 17  |  16, 18  |];
