% Generated Graph Coloring Instance
nc = 3;
nv = 16;
ne = 53;

edges = [|  1, 3  |  1, 6  |  1, 8  |  1, 10  |  1, 12  |  1, 13  |  1, 15  |  2, 3  |  2, 4  |  2, 6  |  2, 7  |  2, 11  |  2, 12  |  2, 13  |  2, 14  |  2, 15  |  3, 4  |  3, 7  |  3, 11  |  3, 16  |  4, 7  |  4, 8  |  4, 10  |  4, 11  |  4, 14  |  5, 7  |  5, 8  |  5, 11  |  5, 13  |  5, 14  |  6, 7  |  6, 9  |  6, 11  |  6, 12  |  6, 13  |  6, 14  |  7, 8  |  7, 10  |  7, 12  |  7, 14  |  7, 15  |  8, 11  |  8, 12  |  8, 13  |  8, 14  |  9, 15  |  10, 12  |  10, 16  |  11, 12  |  11, 16  |  12, 15  |  12, 16  |  13, 16  |];
