% Generated Graph Coloring Instance
nc = 11;
nv = 20;
ne = 74;

edges = [|  1, 4  |  1, 5  |  1, 7  |  1, 18  |  1, 20  |  2, 3  |  2, 6  |  2, 8  |  2, 9  |  2, 10  |  2, 14  |  2, 16  |  2, 17  |  2, 18  |  2, 20  |  3, 5  |  3, 12  |  4, 5  |  4, 6  |  4, 7  |  4, 9  |  4, 11  |  4, 13  |  4, 17  |  4, 20  |  5, 10  |  5, 12  |  5, 15  |  6, 7  |  6, 8  |  6, 10  |  6, 11  |  6, 19  |  7, 11  |  7, 12  |  7, 13  |  7, 15  |  7, 16  |  7, 17  |  7, 18  |  7, 20  |  8, 10  |  8, 11  |  8, 12  |  8, 15  |  8, 16  |  8, 17  |  8, 19  |  9, 10  |  9, 11  |  9, 12  |  9, 13  |  9, 15  |  9, 18  |  10, 12  |  10, 14  |  10, 19  |  11, 14  |  11, 15  |  11, 16  |  11, 18  |  12, 19  |  13, 16  |  13, 17  |  13, 18  |  13, 19  |  13, 20  |  14, 15  |  14, 19  |  15, 17  |  16, 17  |  16, 18  |  18, 19  |  18, 20  |];
