% Generated Graph Coloring Instance
nc = 11;
nv = 20;
ne = 115;

edges = [|  1, 4  |  1, 5  |  1, 6  |  1, 7  |  1, 8  |  1, 11  |  1, 12  |  1, 13  |  1, 14  |  1, 15  |  1, 19  |  1, 20  |  2, 5  |  2, 7  |  2, 8  |  2, 9  |  2, 12  |  2, 14  |  2, 15  |  2, 16  |  2, 18  |  2, 19  |  2, 20  |  3, 6  |  3, 7  |  3, 8  |  3, 10  |  3, 12  |  3, 14  |  3, 16  |  3, 17  |  3, 19  |  3, 20  |  4, 6  |  4, 10  |  4, 11  |  4, 12  |  4, 13  |  4, 14  |  4, 20  |  5, 8  |  5, 10  |  5, 11  |  5, 12  |  5, 14  |  5, 16  |  5, 18  |  5, 20  |  6, 12  |  6, 16  |  6, 17  |  6, 18  |  6, 20  |  7, 8  |  7, 9  |  7, 12  |  7, 13  |  7, 15  |  7, 16  |  7, 18  |  7, 19  |  8, 9  |  8, 10  |  8, 11  |  8, 13  |  8, 14  |  8, 16  |  9, 10  |  9, 11  |  9, 13  |  9, 14  |  9, 15  |  9, 16  |  9, 17  |  9, 18  |  9, 19  |  9, 20  |  10, 11  |  10, 12  |  10, 13  |  10, 14  |  10, 16  |  10, 17  |  10, 20  |  11, 14  |  11, 16  |  11, 17  |  11, 18  |  11, 19  |  11, 20  |  12, 13  |  12, 14  |  12, 15  |  12, 17  |  12, 20  |  13, 14  |  13, 16  |  13, 19  |  13, 20  |  14, 15  |  14, 17  |  14, 19  |  14, 20  |  15, 16  |  15, 17  |  15, 18  |  15, 19  |  16, 17  |  16, 18  |  16, 19  |  16, 20  |  17, 19  |  17, 20  |  18, 19  |  18, 20  |];
