% Generated Graph Coloring Instance
nc = 13;
nv = 20;
ne = 68;

edges = [|  1, 2  |  1, 4  |  1, 6  |  1, 8  |  1, 12  |  1, 14  |  1, 18  |  2, 3  |  2, 5  |  2, 6  |  2, 8  |  2, 9  |  2, 10  |  2, 12  |  2, 14  |  2, 15  |  2, 18  |  2, 19  |  2, 20  |  3, 4  |  3, 5  |  3, 7  |  3, 8  |  3, 9  |  3, 12  |  3, 13  |  3, 17  |  4, 9  |  4, 10  |  4, 13  |  4, 14  |  4, 15  |  4, 17  |  4, 18  |  4, 20  |  5, 7  |  5, 11  |  5, 13  |  5, 17  |  6, 8  |  6, 9  |  6, 14  |  6, 16  |  6, 17  |  6, 18  |  6, 19  |  7, 12  |  7, 16  |  8, 9  |  8, 14  |  8, 20  |  9, 10  |  9, 13  |  9, 20  |  10, 16  |  10, 19  |  11, 13  |  11, 15  |  11, 17  |  11, 18  |  12, 14  |  13, 17  |  13, 19  |  14, 17  |  14, 20  |  15, 19  |  15, 20  |  16, 17  |];
